LAMMPS Description

     5000  atoms
     4900  bonds
     0  angles
     0  dihedrals
     0  impropers

     1  atom types
     1  bond types
     0  angle types
     0  dihedral types
     0  improper types

  -6.995113678856226 52.083148118058276 xlo xhi
  -7.002970278341504 52.09845810310273 ylo yhi
  -6.970607053132763 52.06415840636898 zlo zhi

Masses

1 1.0  # a

Atoms  # full

1 1 1 0.0 3.7593984962406015 7.518796992481203 30.075187969924812
2 1 1 0.0 4.691242381153369 7.495658966532433 29.99676545746191
3 1 1 0.0 5.654329023095089 7.4830963704310545 29.95418661553701
4 1 1 0.0 6.6799011790947125 7.491684634024457 29.98329511468813
5 1 1 0.0 7.798762358451275 7.531850505225556 30.11943069262489
6 1 1 0.0 8.983709613040364 7.594385998027699 30.33138440356412
7 1 1 0.0 10.09217083989542 7.6310315663312664 30.455588497005785
8 1 1 0.0 10.967932253871677 7.588910060899306 30.312824620259867
9 1 1 0.0 11.460873046291555 7.419902154398055 29.732037320254047
10 1 1 0.0 11.573081980930592 7.19474439257866 28.746089781626818
11 1 1 0.0 11.465881853030726 7.108514382859724 27.601174654769107
12 1 1 0.0 11.308094222619431 7.362145292341666 26.553530856380434
13 1 1 0.0 11.251895074634175 8.123229063917227 25.843429222450776
14 1 1 0.0 11.291327671611494 9.242616493139463 25.559444053376662
15 1 1 0.0 11.333031718309643 10.39608832837614 25.706303518834805
16 1 1 0.0 11.28272558328609 11.257579873985138 26.287851951762402
17 1 1 0.0 11.09150492820359 11.5879772376283 27.266624335453404
18 1 1 0.0 10.911834111087225 11.534024049767389 28.421839079735477
19 1 1 0.0 10.952016011186277 11.349460280740232 29.481881835605552
20 1 1 0.0 11.419585863886196 11.287266928198889 30.17587986444471
21 1 1 0.0 12.372131678914975 11.45179456452593 30.377799766665706
22 1 1 0.0 13.538966867886577 11.622001992373422 30.278700210262084
23 1 1 0.0 14.60594402279554 11.5337688572148 30.11162020904472
24 1 1 0.0 15.266607453179162 10.93260450861787 30.10256790647813
25 1 1 0.0 15.443303940724864 9.850469285882458 30.268406933416458
26 1 1 0.0 15.320369285126247 8.647322665737093 30.386521141648288
27 1 1 0.0 15.096506505617311 7.701111274342587 30.22116154790102
28 1 1 0.0 14.956512027705786 7.347390023874545 29.565034835445513
29 1 1 0.0 14.936200949958414 7.467571430092426 28.515693219398567
30 1 1 0.0 14.98096989258144 7.667443772577524 27.35570316928354
31 1 1 0.0 15.034945010167007 7.548922548258398 26.37023078085736
32 1 1 0.0 15.053095405970932 6.816469578336471 25.79867301708435
33 1 1 0.0 15.043795025479763 5.679618730279746 25.65499984762282
34 1 1 0.0 15.03183178120429 4.503137658718914 25.883896303163947
35 1 1 0.0 15.041940109929028 3.6513457471847284 26.430021401920506
36 1 1 0.0 15.080809250849557 3.3358050354519504 27.235782133643177
37 1 1 0.0 15.111581231796697 3.399438965503425 28.238150825538483
38 1 1 0.0 15.090960448588456 3.630674731136908 29.373296392689024
39 1 1 0.0 14.977910584630562 3.821101391931439 30.576794873872316
40 1 1 0.0 14.812589427517597 3.8759388976071594 31.762915564647727
41 1 1 0.0 14.736942857615677 3.8428593094376224 32.81921679705067
42 1 1 0.0 14.899360929255296 3.778553289629465 33.63156583993797
43 1 1 0.0 15.435413845360491 3.7363466991885814 34.095646420658966
44 1 1 0.0 16.325085434992975 3.72872894938432 34.2262783729494
45 1 1 0.0 17.444778054324424 3.741002625890006 34.11759627429507
46 1 1 0.0 18.669017913737417 3.757977886081346 33.86517131066342
47 1 1 0.0 19.878832913905377 3.766775601352045 33.5719017933784
48 1 1 0.0 20.99082321227069 3.767159095856805 33.38077443737926
49 1 1 0.0 21.933693000759995 3.7631934923451746 33.448416683942355
50 1 1 0.0 22.636181355391113 3.75894526159179 33.931270247562075
51 2 1 0.0 23.04094128462963 3.7572252929518224 34.87517630879565
52 2 1 0.0 23.12769331639625 3.757499534379579 36.03132983952789
53 2 1 0.0 22.88226329431981 3.758682995337185 37.10239523413021
54 2 1 0.0 22.291766356624418 3.759702985804565 37.79539441788718
55 2 1 0.0 21.400284339525246 3.7600303066635434 38.00988417074192
56 2 1 0.0 20.33012413275746 3.7598820650834464 37.909804672786606
57 2 1 0.0 19.20926808118926 3.759529514925224 37.678277888694424
58 2 1 0.0 18.157705035806575 3.759233118806757 37.4907291751033
59 2 1 0.0 17.184930053693765 3.7591041723602157 37.4161939377089
60 2 1 0.0 16.219812100269586 3.759145125728459 37.44607601907476
61 2 1 0.0 15.18938677595503 3.7593559540055588 37.5700139896593
62 2 1 0.0 14.04594204836551 3.7597077238771175 37.763645343945306
63 2 1 0.0 12.89543953772639 3.7599955794830855 37.91740382228498
64 2 1 0.0 11.901649976929246 3.7599484862392774 37.889671129184016
65 2 1 0.0 11.228390032593769 3.759295536881699 37.53882456471202
66 2 1 0.0 10.96777764368026 3.7580680707080862 36.78877188225188
67 2 1 0.0 11.000753535065387 3.757187646256549 35.756430376918914
68 2 1 0.0 11.169571916059772 3.7577389053819754 34.59407564075947
69 2 1 0.0 11.317848618631462 3.760771425188635 33.452656707445044
70 2 1 0.0 11.364767507033815 3.765388741275034 32.40950059389442
71 2 1 0.0 11.343248222105132 3.7677654451447857 31.43112744544466
72 2 1 0.0 11.29560784963257 3.7638341236155863 30.474901963939892
73 2 1 0.0 11.262360423067225 3.7501721139028024 29.50022838030185
74 2 1 0.0 11.25545339108654 3.733571829359493 28.498824119654678
75 2 1 0.0 11.264002245418473 3.728990123731555 27.48823305661853
76 2 1 0.0 11.276484433603812 3.751612007893319 26.486720791770445
77 2 1 0.0 11.282819653265092 3.8098469382793505 25.507961624522366
78 2 1 0.0 11.282706845344492 3.8661624113750723 24.534498324591365
79 2 1 0.0 11.279905949927226 3.8639477338834003 23.535945758044072
80 2 1 0.0 11.278189699054431 3.7465445921383673 22.48188396735345
81 2 1 0.0 11.279839757880259 3.5117503246470023 21.36907632093741
82 2 1 0.0 11.282275613141543 3.3349351870034782 20.282927536487268
83 2 1 0.0 11.281927321098703 3.4276046895935313 19.326880430034954
84 2 1 0.0 11.275294678194669 3.9984103275852543 18.6040706678296
85 2 1 0.0 11.263870040445196 5.051690379821208 18.195645680165384
86 2 1 0.0 11.25738858799028 6.254457574218913 18.146449842934143
87 2 1 0.0 11.266356971738542 7.2421533230729995 18.49792981968287
88 2 1 0.0 11.299915761359934 7.671470705688991 19.282864378943337
89 2 1 0.0 11.342214593201673 7.587878357487899 20.375462813112698
90 2 1 0.0 11.355534860447875 7.377041827995968 21.511178657947195
91 2 1 0.0 11.301419903203636 7.436108310603574 22.420782443226884
92 2 1 0.0 11.156491409192297 8.09822124044787 22.872796759596618
93 2 1 0.0 11.01153969223689 9.211907214668516 22.921591230180248
94 2 1 0.0 11.009613996806449 10.40386693486813 22.752377555789835
95 2 1 0.0 11.29403267604961 11.299655900254239 22.551043786905193
96 2 1 0.0 11.961462525518048 11.640009843835895 22.46012705382782
97 2 1 0.0 12.93995382687475 11.581969773148876 22.465477734886374
98 2 1 0.0 14.11947410885315 11.376601003001365 22.517557842672993
99 2 1 0.0 15.389928560563263 11.273384739505477 22.567044038416896
100 2 1 0.0 16.635268777018346 11.37051574094101 22.585112479322234
101 3 1 0.0 17.728652905303004 11.491917061734807 22.580103468950796
102 3 1 0.0 18.54210001828993 11.432566804987687 22.56427938664648
103 3 1 0.0 18.95509785130685 10.995465479367217 22.549632163161505
104 3 1 0.0 19.00627189806203 10.154550176416116 22.542391173650856
105 3 1 0.0 18.886663932783144 9.047474747493533 22.543266629877007
106 3 1 0.0 18.79343931172349 7.818470641865431 22.552747001872252
107 3 1 0.0 18.892342499059275 6.605141683467361 22.570253838178235
108 3 1 0.0 19.08272536805643 5.488901366595967 22.586163114107663
109 3 1 0.0 19.129722490948875 4.522852659483867 22.58629334929882
110 3 1 0.0 18.797444193373348 3.759882485489007 22.556428284278578
111 3 1 0.0 17.94270674031792 3.2555591701649393 22.494090612088012
112 3 1 0.0 16.793987543086203 3.0762008682643303 22.44386487076435
113 3 1 0.0 15.672889119315808 3.290819260610983 22.462127628162804
114 3 1 0.0 14.899800976755232 3.9675022509738076 22.604634099842052
115 3 1 0.0 14.633674616923251 5.051393385771869 22.844444484311218
116 3 1 0.0 14.711711101995814 6.2426046856029975 22.989805509642455
117 3 1 0.0 14.93297168267296 7.212202503809466 22.829427163868036
118 3 1 0.0 15.101337009982956 7.644800387488132 22.162753128906466
119 3 1 0.0 15.141523248237853 7.564676987152158 21.058350073321837
120 3 1 0.0 15.104906882202327 7.352149419789648 19.866880572778314
121 3 1 0.0 15.048849567876514 7.4043589441613875 18.952337283764013
122 3 1 0.0 15.025297217198682 8.06753772671194 18.630837371676687
123 3 1 0.0 15.034613925352978 9.203038397302723 18.762511755107983
124 3 1 0.0 15.04859498076172 10.403661009420363 18.954941446678674
125 3 1 0.0 15.03873250872432 11.259355821724716 18.813027479449314
126 3 1 0.0 14.989262459392148 11.48029223434643 18.055665274742157
127 3 1 0.0 14.941101437563297 11.311337802702644 16.908762601254768
128 3 1 0.0 14.950918659551057 11.145962676351411 15.739135419225281
129 3 1 0.0 15.075012590823812 11.376611520554357 14.912746327432249
130 3 1 0.0 15.296663685250758 12.192942363935495 14.626673226574502
131 3 1 0.0 15.438960064491946 13.339724863710787 14.707482234472824
132 3 1 0.0 15.30373023203914 14.50268617004728 14.932567708213833
133 3 1 0.0 14.70040422026974 15.37245262287362 15.08412036719752
134 3 1 0.0 13.665425927363097 15.785961129878618 15.087570635222287
135 3 1 0.0 12.495691798814054 15.748010416079548 15.032687558115104
136 3 1 0.0 11.502427154330697 15.272634174208537 15.018281319782412
137 3 1 0.0 10.96917750307625 14.387157041078567 15.128382509019215
138 3 1 0.0 10.882164581249263 13.261668851767784 15.288266112796656
139 3 1 0.0 11.046795764340919 12.153080612087571 15.326661549710128
140 3 1 0.0 11.265922917072274 11.319530400942382 15.070933727047265
141 3 1 0.0 11.375883970677151 10.958125329103416 14.39398177606653
142 3 1 0.0 11.378321545453705 10.964691817753495 13.393485506055931
143 3 1 0.0 11.325797809320319 11.142251440811947 12.236364930582132
144 3 1 0.0 11.270833966721836 11.29405348932487 11.08936018851911
145 3 1 0.0 11.248560944506831 11.303267708270903 10.056440006883362
146 3 1 0.0 11.252053290179944 11.246342236795975 9.089767697601378
147 3 1 0.0 11.268153547479928 11.22836561769237 8.119011723226487
148 3 1 0.0 11.283859121381186 11.350576358330201 7.076005860088713
149 3 1 0.0 11.29175674842325 11.575255502511823 5.970735505800776
150 3 1 0.0 11.291454016014022 11.690137349515513 4.9113535886999005
151 4 1 0.0 11.283004351313451 11.471872089476992 4.01224689515234
152 4 1 0.0 11.267062514843076 10.724487379240522 3.384218952267677
153 4 1 0.0 11.251601500061534 9.585194915317235 3.0944649866859724
154 4 1 0.0 11.249476169066478 8.413467796423852 3.181089869999522
155 4 1 0.0 11.273630269479362 7.572825895702623 3.681668817712497
156 4 1 0.0 11.3292554817632 7.33766568558887 4.5976015985041485
157 4 1 0.0 11.37903255392496 7.493647048616177 5.731908381766676
158 4 1 0.0 11.37114539160814 7.659763626618834 6.819959026422839
159 4 1 0.0 11.253870723253234 7.455163195208482 7.597252210607791
160 4 1 0.0 11.03535317116787 6.667422031869303 7.905376877937748
161 4 1 0.0 10.88357477151504 5.533792766799607 7.869165503317177
162 4 1 0.0 10.992905447256375 4.365766022450141 7.660211817728295
163 4 1 0.0 11.553250290043874 3.4718867921756194 7.44859050105205
164 4 1 0.0 12.556306690522987 3.0299344634977916 7.336940846340755
165 4 1 0.0 13.721057668452776 3.037767766228272 7.335117663495657
166 4 1 0.0 14.746642773155086 3.480153893268793 7.446224500493462
167 4 1 0.0 15.350447410413713 4.332532941282596 7.665948800234805
168 4 1 0.0 15.502800092323662 5.441043063758824 7.887168216527999
169 4 1 0.0 15.358965979053675 6.557284680746137 7.927592124981609
170 4 1 0.0 15.078435303309593 7.430698398186909 7.603212602706619
171 4 1 0.0 14.813062857923951 7.85522399283286 6.782358094552075
172 4 1 0.0 14.668129423095186 7.896233533205432 5.652594010453813
173 4 1 0.0 14.73135754790394 7.721428061478503 4.521836919659716
174 4 1 0.0 15.090406719994322 7.498667072288359 3.6981337769422535
175 4 1 0.0 15.79441238090642 7.359301235236649 3.3767085377682915
176 4 1 0.0 16.778793826461165 7.326913649082026 3.419751690796303
177 4 1 0.0 17.95809027396571 7.4052995862704085 3.628303525733594
178 4 1 0.0 19.246265015557427 7.596990832703712 3.805174966500395
179 4 1 0.0 20.52515075535723 7.834029868127319 3.8519597675270814
180 4 1 0.0 21.628124222795485 7.942154611868508 3.8192255623586173
181 4 1 0.0 22.384547381743698 7.738295237860038 3.769883048586455
182 4 1 0.0 22.64092482989476 7.055620580731317 3.762986656991283
183 4 1 0.0 22.516187644460256 5.985360238223204 3.796307983855477
184 4 1 0.0 22.347435045703094 4.825407409874287 3.8185413029227298
185 4 1 0.0 22.47788913730754 3.8794553039849937 3.7770035341199226
186 4 1 0.0 23.185334323777017 3.405513832031403 3.6378659431418563
187 4 1 0.0 24.302797148741938 3.351099021573102 3.495446393086149
188 4 1 0.0 25.4782165549585 3.5345137414692793 3.497391419481157
189 4 1 0.0 26.358953275926805 3.7736460372110345 3.791509133144631
190 4 1 0.0 26.707979900773694 3.923288561611143 4.472591166770208
191 4 1 0.0 26.666104782906952 3.9588434018460896 5.462163864444827
192 4 1 0.0 26.45119909785062 3.8803119664498795 6.646414638960171
193 4 1 0.0 26.279600006339837 3.688591365624043 7.911513445380081
194 4 1 0.0 26.257180233235605 3.449078204706397 9.142373107434846
195 4 1 0.0 26.307064098061257 3.3338747431031477 10.22182669581294
196 4 1 0.0 26.335226453806662 3.525096706767529 11.032512113124056
197 4 1 0.0 26.254651315413433 4.191361650253319 11.464731555221396
198 4 1 0.0 26.106960736547848 5.253557327155073 11.549448777478004
199 4 1 0.0 26.04656260737906 6.415369696754568 11.440955221319415
200 4 1 0.0 26.231686340423543 7.373125270227376 11.2977210399927
201 5 1 0.0 26.798035758569764 7.8634049792924055 11.257521526135607
202 5 1 0.0 27.710343308832286 7.928324650822643 11.301056004550238
203 5 1 0.0 28.85491735558356 7.750148096961381 11.3369735014453
204 5 1 0.0 30.117656143785876 7.51187077443374 11.273548136155213
205 5 1 0.0 31.382159028891948 7.36221774434929 11.074206096942456
206 5 1 0.0 32.52369760803402 7.325769096500143 10.90216268719916
207 5 1 0.0 33.415658363305795 7.399002814037303 10.965858521979445
208 5 1 0.0 33.932538327569354 7.57782714567377 11.471923303108746
209 5 1 0.0 34.05560875572034 7.803373059231835 12.452875960832474
210 5 1 0.0 33.96011153199186 7.917260765673149 13.62493833332093
211 5 1 0.0 33.84181158401982 7.750581750094679 14.670866475955442
212 5 1 0.0 33.88669873704568 7.144107768869647 15.285496320307061
213 5 1 0.0 34.07176677502161 6.145579088133297 15.421936929115384
214 5 1 0.0 34.17344768500824 5.001352062448914 15.281147625614931
215 5 1 0.0 33.96008609789097 3.965791944754981 15.074081926180774
216 5 1 0.0 33.23892572296782 3.274937496751755 14.989070060934186
217 5 1 0.0 32.14782748348591 3.0090640604931513 15.022158838979054
218 5 1 0.0 30.991573419741798 3.16980556764711 15.072315540368296
219 5 1 0.0 30.076229257035383 3.758191168407939 15.037760867742847
220 5 1 0.0 29.633349274299004 4.732193006772468 14.866149004908582
221 5 1 0.0 29.595094358335754 5.876776477186555 14.703762109388624
222 5 1 0.0 29.81843862436038 6.933459726081491 14.746763854075322
223 5 1 0.0 30.160320020109054 7.644776891265374 15.190273290112932
224 5 1 0.0 30.472825361632403 7.889537669525208 16.08929369767779
225 5 1 0.0 30.598352961711996 7.818716333718864 17.218994249553432
226 5 1 0.0 30.378149811684416 7.615629501469682 18.321290374376755
227 5 1 0.0 29.662971223087617 7.459260998137869 19.142641391192424
228 5 1 0.0 28.54284732656473 7.419560869927797 19.543852637302386
229 5 1 0.0 27.359109749074808 7.451965015866404 19.505822845516526
230 5 1 0.0 26.46500558678865 7.506479642698648 19.015144981180804
231 5 1 0.0 26.166130458538387 7.537301588418296 18.078853254233813
232 5 1 0.0 26.313059204745137 7.538643749268797 16.899173955651136
233 5 1 0.0 26.503835744586844 7.526927440391732 15.786662574507483
234 5 1 0.0 26.33380634908898 7.518811217183922 15.053031820782008
235 5 1 0.0 25.520780227784517 7.525983263186137 14.906169441602477
236 5 1 0.0 24.328477181564637 7.537975028871374 15.091136245932795
237 5 1 0.0 23.17267695528249 7.538146346792042 15.224075525115191
238 5 1 0.0 22.46797701307141 7.509952703933822 14.922217718901996
239 5 1 0.0 22.393078464154907 7.4558837516283845 14.019616708535482
240 5 1 0.0 22.608066165788237 7.420275599480298 12.827010979423683
241 5 1 0.0 22.704030803262672 7.45303140542169 11.718554807412357
242 5 1 0.0 22.28363191382721 7.600596711829052 11.05893975094678
243 5 1 0.0 21.296392629727304 7.805748955883719 10.929141042259028
244 5 1 0.0 20.090575211284172 7.8920932820529295 11.083986107449114
245 5 1 0.0 19.036449097605423 7.676657486940403 11.26030164839676
246 5 1 0.0 18.472109620955894 7.000357082961368 11.222967515659397
247 5 1 0.0 18.389131228931436 5.961382553866405 11.039000988039174
248 5 1 0.0 18.567928966629214 4.814700011163527 10.959532803709044
249 5 1 0.0 18.785916039372694 3.8175042869831053 11.238311055781775
250 5 1 0.0 18.863026689799145 3.193090919169651 12.051395083140076
251 6 1 0.0 18.82957923829956 2.997029721658496 13.190458566577062
252 6 1 0.0 18.78084189705731 3.233110127782921 14.328507428536374
253 6 1 0.0 18.811891231053078 3.9048778960384873 15.13895410408816
254 6 1 0.0 18.950766583474355 4.9429737002067755 15.435654114341746
255 6 1 0.0 19.063039108410972 6.101348954391454 15.372834094389052
256 6 1 0.0 18.990147936235658 7.107710738782046 15.15527730730478
257 6 1 0.0 18.576711727958102 7.695689817835709 14.9845948228864
258 6 1 0.0 17.782601002136644 7.813639093749053 14.94741181853103
259 6 1 0.0 16.71274214388082 7.68016052517646 14.985632348540188
260 6 1 0.0 15.481300892101142 7.5310696223945754 15.031942434945847
261 6 1 0.0 14.203025171346697 7.579774333246598 15.025154769911051
262 6 1 0.0 12.99976777206697 7.7662256260498665 14.978850584727926
263 6 1 0.0 11.998130514728329 7.847590526073579 14.956587850801993
264 6 1 0.0 11.324802136838713 7.577690735544226 15.022839216930638
265 6 1 0.0 11.067933012777615 6.7784290901589594 15.211629330648888
266 6 1 0.0 11.10384979253714 5.64591215617482 15.389627287672404
267 6 1 0.0 11.23648536398632 4.504135932130619 15.366306050264749
268 6 1 0.0 11.269890146322599 3.676986829361254 14.951283757431314
269 6 1 0.0 11.112279134319184 3.360982322958373 14.06670450903794
270 6 1 0.0 10.950572894082455 3.4118480981987256 12.935789926152617
271 6 1 0.0 11.017811326258746 3.628916670722146 11.83158300534136
272 6 1 0.0 11.542156504327497 3.813800845329695 11.024213584599686
273 6 1 0.0 12.534203586695394 3.8698217205577143 10.65387517953699
274 6 1 0.0 13.704601669145402 3.840519335087381 10.68162612669146
275 6 1 0.0 14.742111838033836 3.779665945542039 11.055452704065727
276 6 1 0.0 15.354196845221745 3.738340796995479 11.722828823823543
277 6 1 0.0 15.508333919070072 3.730181443133512 12.624104832832334
278 6 1 0.0 15.362484919774305 3.74139593873363 13.694412408095111
279 6 1 0.0 15.078983954217094 3.7575627416626545 14.8687634410353
280 6 1 0.0 14.812142291745781 3.7662050588418 16.07709604077625
281 6 1 0.0 14.667219934882862 3.766736205193883 17.218327440309025
282 6 1 0.0 14.730944674970871 3.763061734205614 18.179654779247198
283 6 1 0.0 15.089980014786489 3.7590946604915856 18.848289003271187
284 6 1 0.0 15.793017210422343 3.757604896042361 19.156809870831555
285 6 1 0.0 16.776413459582844 3.7579806894462875 19.172012608458424
286 6 1 0.0 17.955852240365626 3.7589879351990634 18.985393170081565
287 6 1 0.0 19.246413144248987 3.7594076859374104 18.688985797389947
288 6 1 0.0 20.529308137606655 3.758871104601597 18.405013392390543
289 6 1 0.0 21.634571193696924 3.7582939714951653 18.30131749864407
290 6 1 0.0 22.387984266970673 3.7586987967259464 18.549529791172997
291 6 1 0.0 22.632962756736205 3.760979201796496 19.303839664761725
292 6 1 0.0 22.49400354239454 3.7639742919063726 20.440402245499833
293 6 1 0.0 22.32114754418747 3.7648745972270037 21.612273747257746
294 6 1 0.0 22.47079264269115 3.760824182831369 22.466222339538444
295 6 1 0.0 23.228235223355696 3.7502103438260814 22.718875702745674
296 6 1 0.0 24.394369888940243 3.739890279410774 22.56280188335078
297 6 1 0.0 25.568075521102635 3.740253491605074 22.389055885734617
298 6 1 0.0 26.347600392348443 3.7616987553610697 22.58931396600645
299 6 1 0.0 26.4935668576461 3.804685962323274 23.402427490781246
300 6 1 0.0 26.29844164407491 3.8371209224008362 24.5666811342367
301 7 1 0.0 26.163412542854722 3.8202546521197625 25.718032374233477
302 7 1 0.0 26.48598315257377 3.71623335004397 26.495265271176073
303 7 1 0.0 27.39679004663767 3.552046340855029 26.74190933456247
304 7 1 0.0 28.584080536442826 3.462174321351122 26.640903515960996
305 7 1 0.0 29.694476933865342 3.5912119958279782 26.40712225696341
306 7 1 0.0 30.388883773680167 4.076574929427737 26.247538469361185
307 7 1 0.0 30.591170785731613 4.923495921253868 26.223641596440924
308 7 1 0.0 30.456221064978 6.021085993972457 26.269114716776624
309 7 1 0.0 30.146775925649948 7.254506137397072 26.313293409663135
310 7 1 0.0 29.82264555416533 8.50931402386039 26.296932217561483
311 7 1 0.0 29.621338498492552 9.674085505277011 26.247667458232304
312 7 1 0.0 29.67011210397145 10.63878377425107 26.233071648982584
313 7 1 0.0 30.09616751896812 11.293380696605059 26.320926520119897
314 7 1 0.0 30.95814363904025 11.571885080830956 26.529833103333946
315 7 1 0.0 32.06575276532118 11.56818913654242 26.699833772789418
316 7 1 0.0 33.17223138820628 11.41245899869553 26.630459984276325
317 7 1 0.0 34.03169418359717 11.234464437730459 26.12298488458011
318 7 1 0.0 34.48325919789028 11.125609389584449 25.14726741917567
319 7 1 0.0 34.520781603096864 11.10745798362888 23.9800541517213
320 7 1 0.0 34.15453053586605 11.194165990635149 22.930645194305654
321 7 1 0.0 33.39922482247594 11.395313637529066 22.297036418763234
322 7 1 0.0 32.36504625170063 11.622318131576279 22.134704250991188
323 7 1 0.0 31.253966971904063 11.692210138524832 22.265935756656702
324 7 1 0.0 30.271673946094378 11.418200440333074 22.50358067866088
325 7 1 0.0 29.610213630039855 10.649201817306029 22.67503357770274
326 7 1 0.0 29.34540739690729 9.538328912180768 22.731619350814054
327 7 1 0.0 29.49427559727484 8.392599296253238 22.68736218801058
328 7 1 0.0 30.073382889506018 7.520223247396088 22.556772182076774
329 7 1 0.0 31.051533543593887 7.145865528411802 22.373330434756852
330 7 1 0.0 32.205193125905815 7.157739784123938 22.246917327497258
331 7 1 0.0 33.26241604053138 7.359375769094107 22.306642746039916
332 7 1 0.0 33.95238112564721 7.554871284593725 22.68108060775748
333 7 1 0.0 34.15627313348754 7.625115261507606 23.426350289417815
334 7 1 0.0 34.05948762676233 7.604679412879805 24.453567240430605
335 7 1 0.0 33.88366068591151 7.546443622929901 25.656572647689604
336 7 1 0.0 33.84282325307915 7.502032171736438 26.9287805944477
337 7 1 0.0 33.95892084236053 7.4913561410759835 28.152817669702838
338 7 1 0.0 34.051762531331505 7.500953998464309 29.199958504785883
339 7 1 0.0 33.931540418217146 7.5157764534268185 29.94093764263814
340 7 1 0.0 33.427413421992995 7.522176082701584 30.267028551012622
341 7 1 0.0 32.55011985397689 7.519926278247724 30.26613467248755
342 7 1 0.0 31.41137852685805 7.516264057892617 30.135509928163646
343 7 1 0.0 30.12399414377362 7.518506699315084 30.07358413585938
344 7 1 0.0 28.808302863238797 7.530764262800319 30.213548106692695
345 7 1 0.0 27.618290266949675 7.542817438027894 30.397114466732067
346 7 1 0.0 26.717335846133498 7.540446584259109 30.38462387659058
347 7 1 0.0 26.26809970420704 7.509522809218036 29.93723320541126
348 7 1 0.0 26.289059917408952 7.454130624795069 28.980322051660337
349 7 1 0.0 26.481044107292323 7.418480876432951 27.801072560627613
350 7 1 0.0 26.50251874324744 7.452135567415599 26.734916053742296
351 8 1 0.0 26.022212932778842 7.601205958801271 26.108598844710666
352 8 1 0.0 25.017776818431624 7.807930715913719 25.98743528937103
353 8 1 0.0 23.822681548799657 7.894906112258715 26.135617541735574
354 8 1 0.0 22.790099686527753 7.678103954941268 26.300664953825258
355 8 1 0.0 22.24211458993044 6.9976095882822005 26.25726081832879
356 8 1 0.0 22.16507984190766 5.953908473244266 26.07342960202382
357 8 1 0.0 22.34035160706098 4.806487016030387 25.996310606809754
358 8 1 0.0 22.546354812465932 3.8171051614140468 26.275604279650857
359 8 1 0.0 22.605538718085864 3.210800783287526 27.084784513392503
360 8 1 0.0 22.558670793630686 3.030505719015724 28.219315047432048
361 8 1 0.0 22.51406790624539 3.2628067440880235 29.35770026116014
362 8 1 0.0 22.579805192802915 3.8941147773357665 30.17882555602158
363 8 1 0.0 22.779572759997983 4.859538935994936 30.495589165426495
364 8 1 0.0 22.932112087202757 5.969590007550807 30.446370582872056
365 8 1 0.0 22.82565062521982 7.0162278038448 30.218008979770513
366 8 1 0.0 22.254511512572147 7.79377800614546 29.99516519516205
367 8 1 0.0 21.234928976392776 8.182694831855965 29.883198743903527
368 8 1 0.0 20.06298636943736 8.172048051028995 29.887463294490463
369 8 1 0.0 19.05264615944254 7.75784670840756 30.00692330115198
370 8 1 0.0 18.494314452737225 6.946662629292755 30.232127023670607
371 8 1 0.0 18.390122221755753 5.874331531951958 30.45062805559048
372 8 1 0.0 18.549125808174626 4.763264685126174 30.480998469624048
373 8 1 0.0 18.776829537289956 3.8374660980019897 30.140541277442587
374 8 1 0.0 18.906569753375873 3.2892111769302748 29.304876574907542
375 8 1 0.0 18.925011886428464 3.1359796130148876 28.17089849868664
376 8 1 0.0 18.87133892920381 3.335380884852717 27.045542470320033
377 8 1 0.0 18.78477960699194 3.8449666882277227 26.235633396824547
378 8 1 0.0 18.704162594759083 4.61943330329269 25.926170036402986
379 8 1 0.0 18.667243859092842 5.605820402794657 25.97548241888051
380 8 1 0.0 18.7116014444718 6.749897715323643 26.187718477378198
381 8 1 0.0 18.87279008887685 7.9964443740985365 26.36923044834729
382 8 1 0.0 19.095690376704503 9.24584614093134 26.425156065609944
383 8 1 0.0 19.19992740289501 10.337164648933943 26.397093402955544
384 8 1 0.0 18.99595958197774 11.104973594667817 26.336627228813963
385 8 1 0.0 18.313341861294433 11.401811275415994 26.292899986666495
386 8 1 0.0 17.247904998865163 11.330708508105817 26.280999139333183
387 8 1 0.0 16.090939025942998 11.178569686897196 26.291014153184275
388 8 1 0.0 15.138241416409283 11.23653947343163 26.312458021379197
389 8 1 0.0 14.639077713478434 11.749140550540472 26.334933684187583
390 8 1 0.0 14.557554975332982 12.675185280075032 26.348595298673896
391 8 1 0.0 14.749810307534643 13.865307128855514 26.343805729882007
392 8 1 0.0 15.071777003610833 15.169940841362513 26.310938237425482
393 8 1 0.0 15.379331851287079 16.44659440411888 26.253367904648382
394 8 1 0.0 15.52818410797427 17.57374679113885 26.213018062104123
395 8 1 0.0 15.374012128307283 18.43374530158715 26.23892268090365
396 8 1 0.0 14.775436332982876 18.91102620623118 26.378543994743183
397 8 1 0.0 13.75694565822995 19.007798324596184 26.59073244332649
398 8 1 0.0 12.594178636868333 18.904595627397743 26.70016703398523
399 8 1 0.0 11.58369768984561 18.796808790536545 26.520348623343207
400 8 1 0.0 11.005880456046665 18.865444524780447 25.879961858391475
401 9 1 0.0 10.882326936625644 19.06152507129876 24.850464219750037
402 9 1 0.0 11.026579868098882 19.151165118686087 23.698502587463587
403 9 1 0.0 11.246292859086184 18.8952454876976 22.696248740403405
404 9 1 0.0 11.37160021219914 18.10846089484547 22.08550056494436
405 9 1 0.0 11.386157501752553 16.973002616798613 21.900631808138595
406 9 1 0.0 11.337781642897022 15.824650236202103 22.0893271820074
407 9 1 0.0 11.274502648299652 14.999670353097283 22.598979920226302
408 9 1 0.0 11.234701732563515 14.714711388869388 23.375138833142763
409 9 1 0.0 11.225085704298495 14.793747492960765 24.357297985950243
410 9 1 0.0 11.245871670682677 14.980298621437392 25.48371090003223
411 9 1 0.0 11.29703866972263 15.02041148626073 26.6923235509813
412 9 1 0.0 11.361218821216873 14.844244952892529 27.898672579971986
413 9 1 0.0 11.39222976767628 14.68778139975449 28.981071113899453
414 9 1 0.0 11.341170759337983 14.815854961503943 29.81432056877102
415 9 1 0.0 11.165873325754431 15.475582139792891 30.280468942891716
416 9 1 0.0 10.9485246483533 16.586807245256473 30.395419861062983
417 9 1 0.0 10.880772550152122 17.7813022455119 30.292899680995948
418 9 1 0.0 11.158002923024299 18.68100146938643 30.110658393755326
419 9 1 0.0 11.934213576527863 18.97165306890537 29.975033827026106
420 9 1 0.0 13.047732795123665 18.825717267216874 29.925322515617083
421 9 1 0.0 14.1914828320219 18.63984720125163 29.960727390280145
422 9 1 0.0 15.057614287347056 18.811885776747847 30.080237197800052
423 9 1 0.0 15.428703129195867 19.600351891970938 30.258565189276275
424 9 1 0.0 15.416368473543416 20.75678713315656 30.38209005112019
425 9 1 0.0 15.207050758303694 21.91745120656902 30.31710401924125
426 9 1 0.0 14.986514204787156 22.72053960444539 29.930728705770743
427 9 1 0.0 14.874625892489123 22.992889686293285 29.170908231816902
428 9 1 0.0 14.871050258012124 22.905439487029913 28.13301464808629
429 9 1 0.0 14.962668367430942 22.665721631564423 26.928098744162085
430 9 1 0.0 15.133621646312472 22.475620784197606 25.667284867406664
431 9 1 0.0 15.309073617938735 22.41543453679904 24.463280888095532
432 9 1 0.0 15.357367511134902 22.448321468319094 23.43032026888195
433 9 1 0.0 15.144538623687854 22.53268219637945 22.682698439046373
434 9 1 0.0 14.555186052887676 22.626950725688058 22.316176835895547
435 9 1 0.0 13.632478551667326 22.689846249271646 22.268201853285422
436 9 1 0.0 12.499975242960092 22.68023254263947 22.39595859631513
437 9 1 0.0 11.281863046021058 22.556974510395595 22.556005381802244
438 9 1 0.0 10.092058923115538 22.31977880901035 22.634320505637312
439 9 1 0.0 9.003027684390208 22.133199767913087 22.635628763727844
440 9 1 0.0 8.07677717884239 22.203377149944664 22.594610635192822
441 9 1 0.0 7.375293962565852 22.735176202563597 22.545878987954925
442 9 1 0.0 6.957663470992977 23.75980924161743 22.514834551329315
443 9 1 0.0 6.87715304532824 24.960233809394165 22.508403438539144
444 9 1 0.0 7.186335194977557 25.97781676896434 22.531305413060526
445 9 1 0.0 7.931805666821553 26.46749202230665 22.58718805227719
446 9 1 0.0 9.008647201372595 26.428122620967418 22.65251864364898
447 9 1 0.0 10.15218835913503 26.221207937869178 22.675105780354304
448 9 1 0.0 11.09013125376978 26.22555910972259 22.60138992856214
449 9 1 0.0 11.57887783705814 26.777135082572652 22.394248988518385
450 9 1 0.0 11.650296965733876 27.800590728775923 22.174330708213038
451 10 1 0.0 11.48976435650084 28.991377354998548 22.150201759796275
452 10 1 0.0 11.28431739826417 30.042465198372593 22.53138051511612
453 10 1 0.0 11.185619826944306 30.692398464237517 23.442814574714106
454 10 1 0.0 11.186933402786556 30.883799986921126 24.630746595509425
455 10 1 0.0 11.23719938846602 30.616393317719243 25.735458488274542
456 10 1 0.0 11.285453190608644 29.890339548691188 26.39826979820369
457 10 1 0.0 11.30019141810966 28.793716601272283 26.47131784534795
458 10 1 0.0 11.292876368293706 27.60870176683399 26.272175265857392
459 10 1 0.0 11.280714035291307 26.643419737380288 26.180634560992072
460 10 1 0.0 11.280396436202338 26.195842279210847 26.56635162628012
461 10 1 0.0 11.293082593774045 26.25710772401865 27.492642131530207
462 10 1 0.0 11.302005121193176 26.464242267050373 28.669278815520556
463 10 1 0.0 11.289400887696509 26.434602519619236 29.78639645029453
464 10 1 0.0 11.241367566650716 25.82627812367138 30.551379882473057
465 10 1 0.0 11.185806684060015 24.738406117698066 30.85839359094449
466 10 1 0.0 11.176196916440338 23.539972727107376 30.715880774514126
467 10 1 0.0 11.266384792714025 22.603845167597132 30.133928196703504
468 10 1 0.0 11.476741528682371 22.218744808477133 29.157157812047842
469 10 1 0.0 11.66125487416453 22.255160110542928 28.001842987525514
470 10 1 0.0 11.622317605564579 22.453886865497452 26.9374856366498
471 10 1 0.0 11.162717855918237 22.556083555299267 26.233193930187017
472 10 1 0.0 10.219308732352065 22.43410105206726 26.024374618282376
473 10 1 0.0 9.055247426954576 22.279602659191415 26.1210152279788
474 10 1 0.0 7.982388526985393 22.33190564568847 26.284537947317887
475 10 1 0.0 7.306681895061181 22.824416981898803 26.282114154353685
476 10 1 0.0 7.118188182283643 23.774450628203404 26.091117763870045
477 10 1 0.0 7.234174817978711 24.92626980763381 25.95453034569541
478 10 1 0.0 7.454428085079286 26.006640094704938 26.13235415027019
479 10 1 0.0 7.590942438367309 26.755128510019695 26.85519823099569
480 10 1 0.0 7.605527332111911 27.068397556029016 27.992967200526934
481 10 1 0.0 7.560532980116034 26.948536422220457 29.173497129891047
482 10 1 0.0 7.520168839865858 26.399583894472393 30.020147652807342
483 10 1 0.0 7.534291763053622 25.455634896865433 30.24816870473181
484 10 1 0.0 7.573506760230768 24.316747546806393 30.08020767215927
485 10 1 0.0 7.581214228697832 23.23994979891117 29.91308520016528
486 10 1 0.0 7.500879000408676 22.482142220145423 30.14347060613459
487 10 1 0.0 7.328898118462017 22.193869782998014 30.98458952477099
488 10 1 0.0 7.203910948356629 22.239872910489453 32.156707729669336
489 10 1 0.0 7.2882044841167986 22.437377335900297 33.298136963607185
490 10 1 0.0 7.741143289587742 22.605663235639756 34.05216461009555
491 10 1 0.0 8.590501046444336 22.65651803765092 34.28612068612264
492 10 1 0.0 9.681912775668051 22.629771072331845 34.177438952391604
493 10 1 0.0 10.847645437561962 22.574649301066092 33.926313223109766
494 10 1 0.0 11.929829063263725 22.537895739127688 33.724528584035305
495 10 1 0.0 12.90852109890144 22.531517337170094 33.64628055903334
496 10 1 0.0 13.865225516838155 22.54197244050918 33.67927677123975
497 10 1 0.0 14.883796658314655 22.555127470330106 33.80922104457009
498 10 1 0.0 16.021549110592204 22.55911107289302 34.008236747719735
499 10 1 0.0 17.172775738396652 22.555947721404003 34.165028646313544
500 10 1 0.0 18.169910622030656 22.552934676953242 34.136648218893136
501 11 1 0.0 18.845324398971595 22.55737555955143 33.780137114072595
502 11 1 0.0 19.104323267446897 22.571619150229516 33.0198934882716
503 11 1 0.0 19.068931523677556 22.58329159995269 31.98045619894837
504 11 1 0.0 18.90124130396513 22.57729707203264 30.82336703814292
505 11 1 0.0 18.76189967404053 22.538991654747896 29.708577392009474
506 11 1 0.0 18.72965287010517 22.479344738885413 28.705900791854095
507 11 1 0.0 18.75898836727394 22.448185849559437 27.748394911505248
508 11 1 0.0 18.794012769129647 22.49859097964749 26.75769251619483
509 11 1 0.0 18.78270324072366 22.675382734391942 25.66302057547229
510 11 1 0.0 18.73511244417347 22.891017098820804 24.51540079374906
511 11 1 0.0 18.711300325747654 22.951317078734615 23.463971269218618
512 11 1 0.0 18.772748334813542 22.65907453931164 22.66065914891335
513 11 1 0.0 18.95748011448143 21.86447692207368 22.233470815091597
514 11 1 0.0 19.142944080347675 20.742147609871893 22.146668342303933
515 11 1 0.0 19.139336129989882 19.602591057177154 22.295934004996806
516 11 1 0.0 18.756645502808784 18.756749286868224 22.57671475584952
517 11 1 0.0 17.898276281534713 18.413259044000416 22.87359039164552
518 11 1 0.0 16.77497233995486 18.4441672813695 23.035387189669986
519 11 1 0.0 15.660591009387732 18.65240088929507 22.903589298723244
520 11 1 0.0 14.827403423946402 18.842087734736022 22.321953494213773
521 11 1 0.0 14.431415474086897 18.905384992175797 21.300815767193356
522 11 1 0.0 14.435116870876293 18.88096907719331 20.127772727304055
523 11 1 0.0 14.782692337137838 18.821375882100707 19.116647485660813
524 11 1 0.0 15.418469836993216 18.77734067825253 18.56586554563681
525 11 1 0.0 16.28943178355945 18.766230870725447 18.48851455870637
526 11 1 0.0 17.344901692390675 18.77598493482047 18.64602725972615
527 11 1 0.0 18.53428334087545 18.793532410969405 18.79120870248124
528 11 1 0.0 19.797467914373588 18.806853900707722 18.71765202181753
529 11 1 0.0 21.001616842775903 18.811966029487515 18.530800913674767
530 11 1 0.0 21.980319857112917 18.808594812036606 18.480047765404443
531 11 1 0.0 22.566988541390284 18.796486264334725 18.815555601004757
532 11 1 0.0 22.678776613120615 18.77800416931105 19.68182494617325
533 11 1 0.0 22.538247666502834 18.76505937835054 20.838002273337576
534 11 1 0.0 22.437569724225064 18.771738567178968 21.955409951347363
535 11 1 0.0 22.667416448988593 18.81189256540934 22.707197319271543
536 11 1 0.0 23.371847354689212 18.876232947472353 22.945760809219028
537 11 1 0.0 24.42693563703588 18.913176571685575 22.851130774723337
538 11 1 0.0 25.680181508221107 18.86663078918535 22.638270243118797
539 11 1 0.0 26.980113078030875 18.686515407754868 22.514889039987278
540 11 1 0.0 28.197462816503496 18.45262966503073 22.532015327565443
541 11 1 0.0 29.224397251715633 18.370146518308 22.589431124200733
542 11 1 0.0 29.953956688686496 18.64934988731552 22.58075277522889
543 11 1 0.0 30.298002167467004 19.45961853004084 22.422321051320274
544 11 1 0.0 30.32956106869466 20.6200507707985 22.225071273620824
545 11 1 0.0 30.20353683641289 21.77179473106983 22.1987970961964
546 11 1 0.0 30.075477214829746 22.55459820432568 22.554070110369736
547 11 1 0.0 30.06039256212967 22.730386527050086 23.41549158722465
548 11 1 0.0 30.109304571507916 22.55533822113814 24.559881171360516
549 11 1 0.0 30.131772786814036 22.410596539367123 25.676126980292963
550 11 1 0.0 30.038019891031976 22.67574916608233 26.45422455749234
551 12 1 0.0 29.829336444168145 23.516759766372886 26.736250683775467
552 12 1 0.0 29.690025711764108 24.670286842963055 26.66990910325202
553 12 1 0.0 29.826301782926766 25.821591212057115 26.43949412597048
554 12 1 0.0 30.4349332145082 26.662213832954293 26.225902110479133
555 12 1 0.0 31.472357738275505 27.043486763108586 26.12357240415939
556 12 1 0.0 32.64111235927243 26.985555510895576 26.135605684216443
557 12 1 0.0 33.63157200292268 26.516651905110407 26.26072742108311
558 12 1 0.0 34.1647768322267 25.67581937873078 26.48658105877179
559 12 1 0.0 34.25685741449617 24.606141016848618 26.694168126363987
560 12 1 0.0 34.08872283992821 23.508795660793446 26.70494129278426
561 12 1 0.0 33.84307767067587 22.58559517918045 26.339704366252846
562 12 1 0.0 33.67607932474385 22.01052922126217 25.489289650141455
563 12 1 0.0 33.624738922074016 21.832718470257408 24.358824496268035
564 12 1 0.0 33.69265579527947 22.066267033923353 23.241572937891107
565 12 1 0.0 33.883147749246284 22.724897530010438 22.43019331136578
566 12 1 0.0 34.14241676508606 23.744831114862343 22.09281603166752
567 12 1 0.0 34.29030104635988 24.890823722370257 22.122064351025
568 12 1 0.0 34.12970543296757 25.90465410876164 22.373642215608644
569 12 1 0.0 33.47168142400664 26.534351510311684 22.703303598748764
570 12 1 0.0 32.37446263062146 26.71759429700555 22.968320374392864
571 12 1 0.0 31.1821136172404 26.61136308618413 23.0277196526456
572 12 1 0.0 30.254626551254713 26.384858862103027 22.74062635213897
573 12 1 0.0 29.911513917147577 26.198523762707016 21.988943723586296
574 12 1 0.0 30.03281248688076 26.11770777237698 20.90187250133524
575 12 1 0.0 30.229127855930304 26.149462339125787 19.76022510169718
576 12 1 0.0 30.107168161876515 26.299995593226154 18.847007080451096
577 12 1 0.0 29.374152460516584 26.548924495317483 18.388842907644996
578 12 1 0.0 28.23801098257314 26.743397852071865 18.331485679542187
579 12 1 0.0 27.06228842607761 26.68939510497184 18.53339735251823
580 12 1 0.0 26.210120519336392 26.193312050216267 18.853012456628523
581 12 1 0.0 25.893582108475318 25.2031686112676 19.148773689486532
582 12 1 0.0 25.956290808906182 24.012424463962194 19.279143670447123
583 12 1 0.0 26.186745589124733 22.966214675890747 19.102587999019523
584 12 1 0.0 26.376531662882098 22.40185252679442 18.482439780403652
585 12 1 0.0 26.430563062213313 22.369430450209002 17.460769913546734
586 12 1 0.0 26.397236928148978 22.55539692214965 16.305945262801988
587 12 1 0.0 26.334172927941264 22.62282682464526 15.300878101312565
588 12 1 0.0 26.29546652523765 22.257335501553126 14.708998195344074
589 12 1 0.0 26.29184487752119 21.421917744489175 14.553986585524
590 12 1 0.0 26.304872424631785 20.266090236985853 14.698306939484299
591 12 1 0.0 26.315571529065025 18.94283673629152 15.001426212188335
592 12 1 0.0 26.309380137135598 17.604761525789478 15.322214470296867
593 12 1 0.0 26.296174201800994 16.40236869436388 15.516238307838583
594 12 1 0.0 26.29423688535054 15.485439818009732 15.437927851930311
595 12 1 0.0 26.321830113607376 15.003565192516051 14.941889418095347
596 12 1 0.0 26.379724179795787 14.991191828592685 13.989787509502067
597 12 1 0.0 26.4215828374541 15.17267551490412 12.831603956846815
598 12 1 0.0 26.393220193024643 15.220699667725544 11.765364647720052
599 12 1 0.0 26.242674149969464 14.813556699025703 11.08473854181863
600 12 1 0.0 26.01859259359187 13.883303617935118 10.886276591946162
601 13 1 0.0 25.909157597315723 12.71393902417689 10.993150305324177
602 13 1 0.0 26.112821852606178 11.615366693105317 11.208408695155134
603 13 1 0.0 26.807988925670525 10.8829357322456 11.345332155716578
604 13 1 0.0 27.89187460820992 10.607866909212833 11.360695584792955
605 13 1 0.0 29.054468374961136 10.730944991543774 11.317024699238278
606 13 1 0.0 29.98093617714384 11.189453108591264 11.279306735129635
607 13 1 0.0 30.411810673803583 11.921061706897683 11.299060699619213
608 13 1 0.0 30.428511970986378 12.865825907354122 11.344883021398042
609 13 1 0.0 30.242090286749818 13.964707656860229 11.353836955293488
610 13 1 0.0 30.0637958459965 15.15865976349165 11.262965278076342
611 13 1 0.0 30.034933923506287 16.37387005588281 11.064493083476837
612 13 1 0.0 30.088519996558027 17.492557576179316 10.914973463242964
613 13 1 0.0 30.11897151101084 18.38879354256829 11.00141101134088
614 13 1 0.0 30.022790952355887 18.938387015451934 11.507865063165692
615 13 1 0.0 29.815278168207232 19.116162473335987 12.45058569828669
616 13 1 0.0 29.692332230577275 19.047470529258906 13.590714457603571
617 13 1 0.0 29.86498149941851 18.870271779715175 14.66802174628514
618 13 1 0.0 30.527016432884867 18.71795812861807 15.430968448926086
619 13 1 0.0 31.594921964986415 18.650425081903265 15.767818889102097
620 13 1 0.0 32.76134781341939 18.668243391012652 15.67968380086822
621 13 1 0.0 33.712553916037336 18.770290275303765 15.170895322537863
622 13 1 0.0 34.18205840148114 18.943133202825674 14.26797522025934
623 13 1 0.0 34.22764509673595 19.08887533950396 13.149701092365776
624 13 1 0.0 34.04319711278644 19.074168888978537 12.058754643763766
625 13 1 0.0 33.8230541823617 18.76555535746453 11.238020277445955
626 13 1 0.0 33.71468974296166 18.0785443134673 10.856179400529298
627 13 1 0.0 33.71104061503382 17.0901122955812 10.837236944174542
628 13 1 0.0 33.77323671789433 15.91046915662448 11.054838250803245
629 13 1 0.0 33.862407971632244 14.649859190320694 11.382457110681313
630 13 1 0.0 33.93968435332841 13.42106618823395 11.680917927398411
631 13 1 0.0 33.96619593511513 12.341109341530824 11.78994833240104
632 13 1 0.0 33.903072798139604 11.527409536385557 11.547275090902763
633 13 1 0.0 33.7178196266603 11.089938763858973 10.804644905438067
634 13 1 0.0 33.496453512634375 11.000184080471218 9.674453886620642
635 13 1 0.0 33.429719683470296 11.107254900905904 8.499431213513926
636 13 1 0.0 33.71196789526315 11.25604865117047 7.630233659319432
637 13 1 0.0 34.49599902981011 11.310540948165531 7.356887678565196
638 13 1 0.0 35.61617296195831 11.28092745497818 7.504733737134083
639 13 1 0.0 36.75955005098794 11.245040042028608 7.684165043727286
640 13 1 0.0 37.61239439411381 11.281076226082389 7.5044128042344775
641 13 1 0.0 37.95655140711784 11.424267766036007 6.7119752498039835
642 13 1 0.0 37.92323899371883 11.55279634083471 5.555094287495156
643 13 1 0.0 37.72347887879577 11.508970179377258 4.39662034095981
644 13 1 0.0 37.56723767599345 11.136048936669367 3.5974911185110865
645 13 1 0.0 37.560257960493665 10.371274274500218 3.3297060340235007
646 13 1 0.0 37.617387472689536 9.32402357231697 3.4192085911035304
647 13 1 0.0 37.63306841859256 8.122074504728536 3.6549509531637865
648 13 1 0.0 37.50886148337894 6.891937180442647 3.8318988167707175
649 13 1 0.0 37.3006289535679 5.732645692035456 3.8753684455008504
650 13 1 0.0 37.2134742477299 4.7166592183035885 3.8367516978356626
651 14 1 0.0 37.45860681693989 3.91534965543524 3.7725986729502843
652 14 1 0.0 38.20965812824458 3.3958109647960795 3.734334021347448
653 14 1 0.0 39.317665507871695 3.1884125003988606 3.729382169634452
654 14 1 0.0 40.469441957774656 3.304828069550314 3.742768169715747
655 14 1 0.0 41.35049829116471 3.7565832364113554 3.7593394614782096
656 14 1 0.0 41.73047221724733 4.533993278412651 3.7671024599976133
657 14 1 0.0 41.720094279588004 5.541376281089134 3.7668716578155634
658 14 1 0.0 41.51653011939218 6.6612580935830135 3.76270719591544
659 14 1 0.0 41.31639946773047 7.776499034317861 3.7586578163223168
660 14 1 0.0 41.240756974711346 8.816256391535388 3.7571943950092264
661 14 1 0.0 41.25848396840365 9.802920513084128 3.7576102937347695
662 14 1 0.0 41.320197862979406 10.770071622608006 3.758817507502583
663 14 1 0.0 41.377422711856866 11.750370917307885 3.7597531795599646
664 14 1 0.0 41.4048362048174 12.753009615382306 3.7599966857636917
665 14 1 0.0 41.40162504620486 13.762335059617529 3.75980722988747
666 14 1 0.0 41.3681539302962 14.761500508269723 3.759476690639383
667 14 1 0.0 41.30774055104532 15.736804352274957 3.759273886789089
668 14 1 0.0 41.2521925555596 16.704888596695692 3.759245159409896
669 14 1 0.0 41.24925890721113 17.69937376343499 3.7593123640310253
670 14 1 0.0 41.34686341471995 18.754066595824234 3.7593959908165093
671 14 1 0.0 41.55744297545581 19.880269621970957 3.75943215565026
672 14 1 0.0 41.73380500396313 20.988055477019884 3.759427263023679
673 14 1 0.0 41.68389196156793 21.95904544532701 3.759407472519963
674 14 1 0.0 41.21631627779233 22.675043115206545 3.759398874043589
675 14 1 0.0 40.27821878813762 23.05572512985983 3.75941298448133
676 14 1 0.0 39.12386827218043 23.10473555708336 3.759429011238475
677 14 1 0.0 38.04878981430634 22.836997756349767 3.7594218216078565
678 14 1 0.0 37.34216512575189 22.268071825846324 3.75936773060573
679 14 1 0.0 37.09994047423146 21.432914560918174 3.759287154623229
680 14 1 0.0 37.19417292057252 20.38895643494654 3.7592516074157514
681 14 1 0.0 37.484403703434964 19.194884241622773 3.7593354591761825
682 14 1 0.0 37.829208779091815 17.915621073127742 3.759594509508825
683 14 1 0.0 38.07665629041042 16.683976747599512 3.7598824034129392
684 14 1 0.0 38.06835929121756 15.67446479866986 3.759928599634653
685 14 1 0.0 37.64583691896529 15.06220551562426 3.759460750109587
686 14 1 0.0 36.71791394608292 14.954824757368158 3.7583770479983323
687 14 1 0.0 35.529473099351456 15.122947770431619 3.7574272011261236
688 14 1 0.0 34.43007189035848 15.232231398950708 3.7576261457204
689 14 1 0.0 33.7687204367586 14.948806951255825 3.759985130735455
690 14 1 0.0 33.70042787711736 14.108497878672186 3.764256116580916
691 14 1 0.0 33.905997201578 12.961914495585912 3.7671129226522706
692 14 1 0.0 33.99512536769683 11.821863374908194 3.764767808755387
693 14 1 0.0 33.586089701441566 10.996816392099309 3.7536374520117817
694 14 1 0.0 32.61361246353988 10.635381301840477 3.7376774627228846
695 14 1 0.0 31.4138520377138 10.683365226531805 3.7304072007554567
696 14 1 0.0 30.34884755868373 11.073500648884233 3.74596260482139
697 14 1 0.0 29.754489233412528 11.739598955557778 3.7954125977327693
698 14 1 0.0 29.64398635289881 12.628785337807289 3.85197875693425
699 14 1 0.0 29.813129296930114 13.697155684427722 3.8633815279010792
700 14 1 0.0 30.053646216113773 14.900973491664162 3.776864895979815
701 15 1 0.0 30.18734580308752 16.18009390384395 3.569176055832884
702 15 1 0.0 30.202900738558576 17.3833509980586 3.380723587024566
703 15 1 0.0 30.146514620117028 18.3281968527173 3.4083428010980543
704 15 1 0.0 30.064435845784775 18.83226310054345 3.848722690762153
705 15 1 0.0 29.99736876145286 18.841291763256343 4.776449140411375
706 15 1 0.0 29.971054649237058 18.6467871093179 5.936559077513164
707 15 1 0.0 30.00873560121938 18.598003983815815 7.019046860636079
708 15 1 0.0 30.132232201111627 19.037949099993593 7.718312718916351
709 15 1 0.0 30.298745458295638 20.025598750595876 7.929040950584313
710 15 1 0.0 30.37567831102113 21.225228641616333 7.824238997741575
711 15 1 0.0 30.2238049516324 22.271978330963194 7.5974596591667884
712 15 1 0.0 29.713554866620708 22.825328972149624 7.433189207348889
713 15 1 0.0 28.851167116728497 22.887146081648787 7.388385839857356
714 15 1 0.0 27.743166835233307 22.712122587020428 7.425837001999508
715 15 1 0.0 26.498424337153335 22.560863764498702 7.50612796361478
716 15 1 0.0 25.227873908408057 22.640092953991118 7.5902135300320275
717 15 1 0.0 24.05518721089581 22.824012101315493 7.641329019577293
718 15 1 0.0 23.108890060301317 22.86010082055856 7.623578843301729
719 15 1 0.0 22.517465788394215 22.495681397050923 7.50110398263448
720 15 1 0.0 22.33741730300596 21.605502253424643 7.286262911809665
721 15 1 0.0 22.410423859054266 20.444611716009153 7.135317924627735
722 15 1 0.0 22.538264480621308 19.338693042336484 7.2312592637948345
723 15 1 0.0 22.525582130657035 18.60998798517121 7.754105370135533
724 15 1 0.0 22.341061760691865 18.383614227306435 8.713654469299716
725 15 1 0.0 22.20327013495844 18.484414379537206 9.860411807777048
726 15 1 0.0 22.351764962499928 18.71200689810273 10.923101116401694
727 15 1 0.0 23.00729643386001 18.874237508052452 11.6410416352737
728 15 1 0.0 24.087131272347776 18.91170948373542 11.924524755290248
729 15 1 0.0 25.263086972168143 18.872396818671174 11.82211952376871
730 15 1 0.0 26.199944496589026 18.80735160684807 11.386359127619988
731 15 1 0.0 26.616928957589206 18.762535548262704 10.670575420905049
732 15 1 0.0 26.607727993656898 18.74889901772413 9.733593426848657
733 15 1 0.0 26.423531838891822 18.7626662847506 8.636548649271587
734 15 1 0.0 26.316055588746487 18.800009128523246 7.440587504595927
735 15 1 0.0 26.437013594401876 18.850698720898954 6.220199898518308
736 15 1 0.0 26.607642538938048 18.88335381333652 5.0939726607323434
737 15 1 0.0 26.581005119249763 18.86222964061815 4.189589341761999
738 15 1 0.0 26.112810275598765 18.75244691412707 3.6334307995093584
739 15 1 0.0 25.155053560874514 18.583323566275087 3.455249922870177
740 15 1 0.0 23.98776282254995 18.491463306318224 3.523315870547171
741 15 1 0.0 22.922159658683388 18.62367202732031 3.690541742445135
742 15 1 0.0 22.256955396183216 19.11931096580421 3.814820915610713
743 15 1 0.0 22.057524293587964 19.978886307792884 3.8469371012823994
744 15 1 0.0 22.182637547918617 21.079958156456442 3.8199216688333366
745 15 1 0.0 22.483927717092328 22.295838528279955 3.7696478445977677
746 15 1 0.0 22.813502319927625 23.504882215259475 3.729356764139991
747 15 1 0.0 23.02711796568549 24.62418729092713 3.712067398958886
748 15 1 0.0 22.98222274729015 25.588810722630807 3.7214250257400585
749 15 1 0.0 22.53627584491559 26.333907837612614 3.7610234129761455
750 15 1 0.0 21.62603022398701 26.799381354231013 3.8246705621808843
751 16 1 0.0 20.478729126752224 26.942525908196334 3.8703246267416276
752 16 1 0.0 19.38811978476967 26.724617789607887 3.8477364012912028
753 16 1 0.0 18.64637411908284 26.10778756862171 3.7074752267156166
754 16 1 0.0 18.388991120743494 25.139128467681264 3.4815191811650807
755 16 1 0.0 18.463921994007897 24.0216688961625 3.3512588943223243
756 16 1 0.0 18.68830211293713 22.975148476194978 3.5140971928977995
757 16 1 0.0 18.883647261407127 22.21459959425655 4.155982218420011
758 16 1 0.0 18.96675171903975 21.852667337240987 5.2137107271580225
759 16 1 0.0 18.94674446560912 21.902772926966485 6.382626057478477
760 16 1 0.0 18.83654594978993 22.374263231860734 7.348156931429344
761 16 1 0.0 18.657504990702137 23.257493948043287 7.833210119603725
762 16 1 0.0 18.503506228555416 24.379379892311782 7.8832341035591655
763 16 1 0.0 18.505436855414697 25.48346011592456 7.7082149161780364
764 16 1 0.0 18.79447970252018 26.312607523041322 7.519453195512812
765 16 1 0.0 19.461782483852705 26.679695831747626 7.47622292846762
766 16 1 0.0 20.435803801583223 26.682058280249624 7.526379471374545
767 16 1 0.0 21.60368271152888 26.48927472606714 7.564082381204551
768 16 1 0.0 22.85257653552686 26.27056100283779 7.484188436324313
769 16 1 0.0 24.07219192246035 26.14434239594236 7.278832757107632
770 16 1 0.0 25.157380037359005 26.126549379042785 7.136457172371783
771 16 1 0.0 26.003611025911272 26.220780399948524 7.269122847005315
772 16 1 0.0 26.510177287594416 26.427231523002426 7.879283142467587
773 16 1 0.0 26.674344671428127 26.65888763732542 8.923120581971208
774 16 1 0.0 26.597291394070783 26.736235922259134 10.09561849647743
775 16 1 0.0 26.38520699935792 26.475302718677398 11.079163500690102
776 16 1 0.0 26.144180322633236 25.72253529774881 11.58872612541606
777 16 1 0.0 25.979326073939664 24.618634149347756 11.654452081788083
778 16 1 0.0 25.99521278562891 23.469283203885116 11.483201156831168
779 16 1 0.0 26.296402960192758 22.581987826533506 11.28378407979618
780 16 1 0.0 26.957332775910167 22.18990483077137 11.22051065494837
781 16 1 0.0 27.916615413790066 22.19099437407483 11.257060534326774
782 16 1 0.0 29.07460429733097 22.38879561722054 11.300598191188241
783 16 1 0.0 30.331608274004914 22.5871833616536 11.258633166343914
784 16 1 0.0 31.57911256910499 22.660949598644187 11.111109105723386
785 16 1 0.0 32.68899852802348 22.642446564455376 10.998900106342386
786 16 1 0.0 33.53050774586637 22.585242688468128 11.084550271689006
787 16 1 0.0 33.97763925705022 22.54187318228438 11.526332055321328
788 16 1 0.0 34.04989506605426 22.533273010871355 12.351872470822725
789 16 1 0.0 33.935693820071926 22.543691925360516 13.437130224958215
790 16 1 0.0 33.83292704543685 22.555322362747138 14.649558435482755
791 16 1 0.0 33.91632213469386 22.552250287757868 15.860635410092
792 16 1 0.0 34.107772648683245 22.53922930053054 16.985773937491185
793 16 1 0.0 34.17353911280771 22.5337350598479 17.967430879537005
794 16 1 0.0 33.877604650149415 22.553429388347933 18.748458838199053
795 16 1 0.0 33.057613201428616 22.606657311262445 19.270850520235925
796 16 1 0.0 31.919836593596404 22.655138912037362 19.4722953764267
797 16 1 0.0 30.78562166954465 22.646039309289144 19.28913950489338
798 16 1 0.0 29.97594951096519 22.526709863961763 18.658019540517664
799 16 1 0.0 29.675353833166856 22.309028197925343 17.613830845261678
800 16 1 0.0 29.73412951150048 22.162934218680707 16.43216146593521
801 17 1 0.0 29.95233443866851 22.28212501377869 15.424776197190388
802 17 1 0.0 30.132902120614897 22.8547303475665 14.896117512923942
803 17 1 0.0 30.185280541695647 23.862662917844908 14.879404634624413
804 17 1 0.0 30.154307169263983 25.025714981689976 15.063107633544462
805 17 1 0.0 30.09357445117236 26.046728739968145 15.113403327276151
806 17 1 0.0 30.053566896000778 26.648765334308216 14.719669262852028
807 17 1 0.0 30.046309748112964 26.805085642173296 13.858380933997982
808 17 1 0.0 30.05786295185898 26.657869820598098 12.69984448801835
809 17 1 0.0 30.073798823126598 26.352470331520735 11.41800621284756
810 17 1 0.0 30.081875921116534 26.03367218801832 10.173713609406503
811 17 1 0.0 30.082008367171227 25.843105374699174 9.05498462731208
812 17 1 0.0 30.078310444472788 25.921309706089563 8.124672119032715
813 17 1 0.0 30.074898061066833 26.408660488451602 7.445580491302353
814 17 1 0.0 30.074405177681182 27.343770064030732 7.065295049162204
815 17 1 0.0 30.075457377152528 28.490001844008827 6.990236401704194
816 17 1 0.0 30.076009189207156 29.564639090355605 7.219933667745093
817 17 1 0.0 30.074068273297904 30.288647870157725 7.753390027669073
818 17 1 0.0 30.070069041400473 30.551209996975953 8.565585906586419
819 17 1 0.0 30.067824934336304 30.475732181339996 9.598052260714793
820 17 1 0.0 30.071399544603768 30.202960953422373 10.78984376059407
821 17 1 0.0 30.08414794566478 29.8737892162085 12.07537782612787
822 17 1 0.0 30.099430238732904 29.631174732098735 13.32365487494458
823 17 1 0.0 30.10321126475971 29.61960304890375 14.35527341365562
824 17 1 0.0 30.081282124025474 29.983595607486404 14.989694817762073
825 17 1 0.0 30.026445498806773 30.821764947355426 15.102787199404542
826 17 1 0.0 29.974875814237627 31.948743606723877 14.919335431340283
827 17 1 0.0 29.979312013493853 33.070706599503005 14.797382530812964
828 17 1 0.0 30.092487247015693 33.89368655691287 15.095118992881714
829 17 1 0.0 30.31224913737555 34.22838711063879 16.003336916023827
830 17 1 0.0 30.472279808155577 34.198588356940824 17.212130995000276
831 17 1 0.0 30.375700133553188 33.98635308831671 18.31838548562245
832 17 1 0.0 29.828924719046597 33.77249972404378 18.92423352946017
833 17 1 0.0 28.82803170148038 33.66619171242555 18.934055817691508
834 17 1 0.0 27.65858961917997 33.667222892511276 18.713564557639653
835 17 1 0.0 26.630552145452494 33.76617438793404 18.667332075080672
836 17 1 0.0 26.037467841193493 33.949228080239806 19.174827496370703
837 17 1 0.0 25.907355194400022 34.13136054358018 20.20920426987688
838 17 1 0.0 26.053055122016723 34.16984571630422 21.414349860209395
839 17 1 0.0 26.281213703662853 33.920296311381826 22.424672355497826
840 17 1 0.0 26.41993996286619 33.26668307833276 22.927658398083256
841 17 1 0.0 26.445315126780976 32.28848588120882 22.976734674014953
842 17 1 0.0 26.39579156673652 31.147592812574757 22.779573725429877
843 17 1 0.0 26.31004046734191 30.00617092441237 22.54437870104245
844 17 1 0.0 26.226732612360635 28.978018109048623 22.429187016752312
845 17 1 0.0 26.184537457903783 28.016727369054667 22.425880716886468
846 17 1 0.0 26.222124185579272 27.0427680111245 22.49198783819624
847 17 1 0.0 26.37707008702414 25.97771751105174 22.585055929488554
848 17 1 0.0 26.60547555936542 24.82584498869424 22.664088530318242
849 17 1 0.0 26.727001544458737 23.72989321265987 22.69052735103347
850 17 1 0.0 26.54830013117924 22.845807755207975 22.62604656996848
851 18 1 0.0 25.889666505596878 22.322068366626862 22.438666468075468
852 18 1 0.0 24.82668840619008 22.16745273984971 22.215156955664526
853 18 1 0.0 23.661441247077388 22.266799212924504 22.147638950282996
854 18 1 0.0 22.7038566676277 22.500647013642514 22.43188770184252
855 18 1 0.0 22.222665158774948 22.750882439100632 23.22174302105795
856 18 1 0.0 22.16927994692975 22.909766457088683 24.348072195839038
857 18 1 0.0 22.347717665839895 22.874379158971244 25.49171900542606
858 18 1 0.0 22.561182285150455 22.541828050771063 26.33270125110376
859 18 1 0.0 22.658081256408092 21.84714730605046 26.651606454522668
860 18 1 0.0 22.652796480815898 20.86462713590239 26.59828581543087
861 18 1 0.0 22.59779349270441 19.700510716801066 26.407319854704422
862 18 1 0.0 22.545323032576984 18.46102964898511 26.311885794196936
863 18 1 0.0 22.526127003615866 17.25125632167951 26.40463851962096
864 18 1 0.0 22.5313903383644 16.17413121547351 26.51979784454345
865 18 1 0.0 22.54804789880599 15.3323657549396 26.46381686344132
866 18 1 0.0 22.563321008774693 14.824327500049327 26.050017505806913
867 18 1 0.0 22.570683381493527 14.653573714476257 25.241642645466776
868 18 1 0.0 22.56967983883492 14.731600279581137 24.147509317619917
869 18 1 0.0 22.560105398534727 14.966109144122305 22.88243379996013
870 18 1 0.0 22.5427562500473 15.26011175948823 21.564377014709287
871 18 1 0.0 22.527066401740104 15.476151327569939 20.338430964081162
872 18 1 0.0 22.52688537441635 15.456084339792914 19.36355661678498
873 18 1 0.0 22.556098235149165 15.041600753028698 18.7988265910913
874 18 1 0.0 22.617260257298945 14.149527762006558 18.723866466287053
875 18 1 0.0 22.666782309065482 13.002714297972714 18.89472696684574
876 18 1 0.0 22.6493291069311 11.901907744509433 18.985092183119622
877 18 1 0.0 22.5101362357955 11.14677835962708 18.66999939056522
878 18 1 0.0 22.27472490706344 10.885510252865975 17.814796356919643
879 18 1 0.0 22.130968714106285 10.959954531089938 16.669673854577198
880 18 1 0.0 22.28632373396451 11.175013283541007 15.531241327235833
881 18 1 0.0 22.938187454561376 11.340101097772767 14.690563090065378
882 18 1 0.0 24.025176190397385 11.380727333130935 14.2960418134928
883 18 1 0.0 25.210899259358673 11.345775372237341 14.344473503773536
884 18 1 0.0 26.145658462834348 11.29009863436832 14.82531796041442
885 18 1 0.0 26.522420113539045 11.26366558884298 15.712985181409508
886 18 1 0.0 26.447899297022545 11.269071795098856 16.835936302012755
887 18 1 0.0 26.261267928656686 11.282297249764554 17.94063388207152
888 18 1 0.0 26.30428107879932 11.279026186492686 18.77262927986051
889 18 1 0.0 26.843706778355152 11.244763418463025 19.14123205609746
890 18 1 0.0 27.807472231214884 11.209389604508205 19.14385331814426
891 18 1 0.0 29.027842685097983 11.215313646409964 18.959241353922785
892 18 1 0.0 30.337175001750335 11.304692046658374 18.765860010833677
893 18 1 0.0 31.588256949441043 11.466525239245334 18.681430493529124
894 18 1 0.0 32.67936438567033 11.5714651167374 18.68843444935948
895 18 1 0.0 33.514913159658946 11.474188861029198 18.75109886217625
896 18 1 0.0 34.00250011760237 11.033109754777275 18.833652328295674
897 18 1 0.0 34.14740015475263 10.221364557712775 18.900372957569825
898 18 1 0.0 34.06850739482353 9.145536521153797 18.915596454057454
899 18 1 0.0 33.891108053184745 7.919716447886078 18.843661762003418
900 18 1 0.0 33.73484520111538 6.657977029809783 18.660298727599063
901 19 1 0.0 33.65760260848185 5.474192750942588 18.46590070648636
902 19 1 0.0 33.67917101738905 4.482115841031191 18.43775328620961
903 19 1 0.0 33.81878054066001 3.795496730560586 18.754273705937894
904 19 1 0.0 34.066469622681396 3.4940672362831924 19.536977519924637
905 19 1 0.0 34.26585696001079 3.486928405588833 20.621972465649165
906 19 1 0.0 34.214751573119685 3.6297968183301426 21.756072043763503
907 19 1 0.0 33.711380369317396 3.778510681775722 22.68624123304677
908 19 1 0.0 32.70210839882645 3.8367103836609773 23.22164769473585
909 19 1 0.0 31.496953950512914 3.825382306474095 23.324155799255816
910 19 1 0.0 30.460722754677846 3.783192001020659 22.978634969985922
911 19 1 0.0 29.949510019872893 3.748252026403397 22.173664134721943
912 19 1 0.0 29.995360987587116 3.73810247221597 21.03582368874633
913 19 1 0.0 30.217609607435843 3.744082251285748 19.867453230291517
914 19 1 0.0 30.208821271921767 3.755830861593699 18.98229214323885
915 19 1 0.0 29.59902526857349 3.763585966217278 18.66202528011505
916 19 1 0.0 28.483142329916227 3.765007890395974 18.79057112692731
917 19 1 0.0 27.27058699888377 3.7627783064640443 18.98276371651542
918 19 1 0.0 26.37671032811914 3.7596736716920267 18.84835773701995
919 19 1 0.0 26.120475022457764 3.7580563371902502 18.089753110375
920 19 1 0.0 26.28368713203312 3.7579809074920956 16.925646644917524
921 19 1 0.0 26.462139429878373 3.7587028319873976 15.753524846470052
922 19 1 0.0 26.25173137396096 3.7594771443685318 14.970763757267001
923 19 1 0.0 25.430024163530675 3.759786896007835 14.795125362928355
924 19 1 0.0 24.267006548538493 3.759733222123297 14.957494724159643
925 19 1 0.0 23.115297653414288 3.7595209736968886 15.107057933821121
926 19 1 0.0 22.323115473077934 3.759352590524486 14.897382346270081
927 19 1 0.0 22.036688030505623 3.759319850943263 14.183113444736778
928 19 1 0.0 22.12043110903777 3.759360140707344 13.099436767456607
929 19 1 0.0 22.41783781402921 3.7593993829519743 11.80236607943226
930 19 1 0.0 22.77259922733181 3.759369895884996 10.447742683688976
931 19 1 0.0 23.031207412148067 3.7592944755202105 9.188967882596712
932 19 1 0.0 23.042230987429225 3.7592629951506225 8.17763404203016
933 19 1 0.0 22.654287583803363 3.759366911253281 7.565290832640933
934 19 1 0.0 21.767009949231923 3.759657671795956 7.452436957553606
935 19 1 0.0 20.59633475335983 3.7599386639940913 7.6230449198446095
936 19 1 0.0 19.479262539322093 3.759918330949324 7.739938273076972
937 19 1 0.0 18.752934643016125 3.7593051315511032 7.465799714319299
938 19 1 0.0 18.604138379367228 3.758107522123331 6.61382241795898
939 19 1 0.0 18.76895258762469 3.757233245789923 5.44837703516133
940 19 1 0.0 18.89935908976473 3.7577578422476017 4.318018744575609
941 19 1 0.0 18.650911313735843 3.760724018734397 3.5677149224411138
942 19 1 0.0 17.885923966478618 3.76527380217683 3.3347340496472757
943 19 1 0.0 16.782932556585184 3.7676423180993868 3.438689814513926
944 19 1 0.0 15.547182600495114 3.763819156758616 3.67236477357576
945 19 1 0.0 14.375691593200823 3.75041003972556 3.837072193103861
946 19 1 0.0 13.331890572215661 3.7340239196242235 3.87262610784501
947 19 1 0.0 12.370742413037664 3.7293920700608836 3.8312989864154665
948 19 1 0.0 11.444074051454782 3.751480590312618 3.7686146005045837
949 19 1 0.0 10.506998315177723 3.808722496358425 3.7336022605523214
950 19 1 0.0 9.537336000975571 3.8644023157634497 3.730409695807087
951 20 1 0.0 8.522499830672658 3.862733697666839 3.7442264996296815
952 20 1 0.0 7.44994103847749 3.7478733608105745 3.76017579286657
953 20 1 0.0 6.329264939912018 3.516758286900974 3.7671478393801623
954 20 1 0.0 5.243617852145221 3.3415308002028508 3.7665380241805435
955 20 1 0.0 4.2913858777562055 3.430640750898524 3.76233314874685
956 20 1 0.0 3.570700129639159 3.9899145653672696 3.758496394755732
957 20 1 0.0 3.1605500421881083 5.028242331079468 3.7572178420994273
958 20 1 0.0 3.1078058049946446 6.224060017813678 3.7577123514242294
959 20 1 0.0 3.4562670908567417 7.224213035728069 3.7589103601057285
960 20 1 0.0 4.241165295257435 7.6946533539545685 3.7597790481027626
961 20 1 0.0 5.336878998753407 7.660021588306464 3.7599753662261577
962 20 1 0.0 6.474802447609186 7.463801748089191 3.759769412318885
963 20 1 0.0 7.381350848053777 7.460580695442528 3.7594526353994624
964 20 1 0.0 7.821413121937895 7.958716278980131 3.7592850529911233
965 20 1 0.0 7.856912556532762 8.909657598710371 3.7592840173558186
966 20 1 0.0 7.68803694790878 10.098718725981467 3.7593539241516187
967 20 1 0.0 7.515743051776617 11.310289520894743 3.7593985406096606
968 20 1 0.0 7.485541263458205 12.382806483481184 3.759355963975528
969 20 1 0.0 7.53890004897375 13.353597088877027 3.759290625528835
970 20 1 0.0 7.570363604653644 14.305728498107706 3.7592960100496384
971 20 1 0.0 7.475536816028415 15.321618678266558 3.759464395783615
972 20 1 0.0 7.256969421512866 16.41823008917444 3.7597664111644664
973 20 1 0.0 7.1142973736152335 17.491898739058442 3.7599484989802887
974 20 1 0.0 7.268386031773142 18.425967195486734 3.759732953560493
975 20 1 0.0 7.927369369143716 19.1054508202601 3.7588707894391553
976 20 1 0.0 9.020540671490926 19.45200223393293 3.7577420462568476
977 20 1 0.0 10.205905554055155 19.422918914612108 3.75733875022409
978 20 1 0.0 11.130249206277751 18.97697260747475 3.758678239243177
979 20 1 0.0 11.489636770713648 18.0958029223213 3.762437170819549
980 20 1 0.0 11.406372311733778 16.958841336552066 3.766345542896959
981 20 1 0.0 11.2210970914131 15.84683649943862 3.766623952568244
982 20 1 0.0 11.276223345501661 15.041358862704262 3.7594807538948127
983 20 1 0.0 11.83099729873601 14.739542732095241 3.744054157145068
984 20 1 0.0 12.805178602681003 14.79385110472729 3.7314421483597044
985 20 1 0.0 14.031914798240367 14.968812102278793 3.73579397246424
986 20 1 0.0 15.344497683649145 15.02996721039738 3.771114817131823
987 20 1 0.0 16.596673543245707 14.886522066157607 3.830987345324207
988 20 1 0.0 17.683637426071698 14.738801896647383 3.867610221545954
989 20 1 0.0 18.505596214439812 14.822333046716524 3.8281781083274184
990 20 1 0.0 18.967087620329707 15.363345663411204 3.6643755200109407
991 20 1 0.0 19.084483906318347 16.34801517360066 3.443827933375933
992 20 1 0.0 18.9932374683638 17.506909520201738 3.357613418317964
993 20 1 0.0 18.834582439087328 18.558186052361272 3.6028040788635325
994 20 1 0.0 18.73858372611842 19.239937522865347 4.345239920619544
995 20 1 0.0 18.7267099407847 19.484084904633338 5.447097067710309
996 20 1 0.0 18.759292313261824 19.331670293273906 6.599595404532247
997 20 1 0.0 18.79597825427431 18.824956300302926 7.4920426759711845
998 20 1 0.0 18.805302816364463 18.01656162590966 7.888162817629621
999 20 1 0.0 18.796052224367617 17.006006580185762 7.888702675720561
1000 20 1 0.0 18.78840198934645 15.906082536628857 7.689771546181108
1001 21 1 0.0 18.80244763107078 14.8293397896129 7.487157907370123
1002 21 1 0.0 18.84117527061299 13.837043625335806 7.407370540479314
1003 21 1 0.0 18.869397700819423 12.876035703265819 7.4223460721722025
1004 21 1 0.0 18.84676261304289 11.877675416252256 7.483106503552383
1005 21 1 0.0 18.73551958822411 10.776623655007965 7.5413727162842035
1006 21 1 0.0 18.578134162907133 9.609326108235283 7.570411999031721
1007 21 1 0.0 18.510562907240015 8.530857805862873 7.568603799825709
1008 21 1 0.0 18.67403883133088 7.702988971705284 7.535744844868504
1009 21 1 0.0 19.197012677519478 7.270761977836522 7.47428324328037
1010 21 1 0.0 20.067669248631816 7.195656476255308 7.415761997414248
1011 21 1 0.0 21.187502816808703 7.325702270246323 7.409706035551268
1012 21 1 0.0 22.456724473786956 7.507249895226574 7.5059064517784595
1013 21 1 0.0 23.766723902524365 7.610542936930595 7.721441639501892
1014 21 1 0.0 24.96454340653552 7.625941188705782 7.908935245061889
1015 21 1 0.0 25.883319681297575 7.581468200431382 7.869444322104462
1016 21 1 0.0 26.356568736416975 7.505170940476403 7.404400188785614
1017 21 1 0.0 26.350637763741627 7.428608038342653 6.450903929924216
1018 21 1 0.0 26.15864962612328 7.3919770997397185 5.279815453293622
1019 21 1 0.0 26.123075210621327 7.4367803452700505 4.212397251485609
1020 21 1 0.0 26.57857928252714 7.6018778004255445 3.5636551859709984
1021 21 1 0.0 27.568153440890445 7.827404741505145 3.414818159117903
1022 21 1 0.0 28.76257843101846 7.9275115156622755 3.548786904633608
1023 21 1 0.0 29.808420552298976 7.708152429491996 3.729054201744883
1024 21 1 0.0 30.378341930289945 6.998147806023054 3.7389181899372383
1025 21 1 0.0 30.469733626091305 5.910856082841885 3.608129200425893
1026 21 1 0.0 30.30010165493442 4.752507619867483 3.533493243612259
1027 21 1 0.0 30.0911282851655 3.832992146594861 3.714985886474487
1028 21 1 0.0 30.025769325907916 3.402873377133904 4.312871854263123
1029 21 1 0.0 30.070666716740956 3.38133848846667 5.265603550384498
1030 21 1 0.0 30.11739021128076 3.572569729451079 6.434652942781713
1031 21 1 0.0 30.057554997926992 3.7807269480861003 7.6814412804980865
1032 21 1 0.0 29.859623482727166 3.8686465866587905 8.883738079917588
1033 21 1 0.0 29.700819520299547 3.858564623258202 9.963724198209595
1034 21 1 0.0 29.79347903929461 3.7995268149825243 10.85105013934103
1035 21 1 0.0 30.3453979322843 3.740155342538269 11.475929726018462
1036 21 1 0.0 31.355005564588176 3.7095389035006385 11.794554567554199
1037 21 1 0.0 32.52804589762879 3.7094592258217864 11.799432102082585
1038 21 1 0.0 33.54847058957632 3.739664858637856 11.485773713831946
1039 21 1 0.0 34.120182347509036 3.7980649021867143 10.85242024522494
1040 21 1 0.0 34.230177545143164 3.8564677571602313 9.949712418855038
1041 21 1 0.0 34.07574560280672 3.8672932038990964 8.866247082329709
1042 21 1 0.0 33.85916231212514 3.7825012887605456 7.691528194768734
1043 21 1 0.0 33.754532198110965 3.579090206207916 6.513191588776325
1044 21 1 0.0 33.760883524784155 3.3896629878171276 5.4072632318380105
1045 21 1 0.0 33.810090074398666 3.4065084394511964 4.445315863624392
1046 21 1 0.0 33.83390850325294 3.8219651435414987 3.6989097395524513
1047 21 1 0.0 33.794542311761795 4.72124479375818 3.234671415310366
1048 21 1 0.0 33.74566525268706 5.867721999091582 3.104405327172104
1049 21 1 0.0 33.75805753899944 6.96458247496723 3.357143928286799
1050 21 1 0.0 33.90066771292178 7.717846800974341 4.039888641582674
1051 22 1 0.0 34.13584148930035 7.998524016249855 5.081435385934472
1052 22 1 0.0 34.262558831684736 7.930463204725154 6.22943356232029
1053 22 1 0.0 34.065962889341314 7.658928592217049 7.216189755331282
1054 22 1 0.0 33.34991351688864 7.32903187929743 7.788236246019607
1055 22 1 0.0 32.223081466925294 7.083400816717288 7.923777889823315
1056 22 1 0.0 31.04212329136241 7.062642281677 7.789502004317208
1057 22 1 0.0 30.170895356640855 7.407304479006131 7.557568150944234
1058 22 1 0.0 29.90381160029305 8.219001656802718 7.3846517469987765
1059 22 1 0.0 30.054242226757264 9.329643558522498 7.320165969354587
1060 22 1 0.0 30.23193030417668 10.456973268441383 7.368119593275361
1061 22 1 0.0 30.04591782764068 11.318341095308163 7.532351136192012
1062 22 1 0.0 29.253010181146532 11.715431696412892 7.778559552238209
1063 22 1 0.0 28.101612253784403 11.73050480459145 7.945555866271531
1064 22 1 0.0 26.942233904013914 11.504095454418723 7.845796544209117
1065 22 1 0.0 26.123011089664033 11.176760852575018 7.294098506987039
1066 22 1 0.0 25.812800976825418 10.8907326601083 6.283542044468412
1067 22 1 0.0 25.879025345001622 10.791057928524262 5.106935523693154
1068 22 1 0.0 26.160213375387652 11.023053564658278 4.085816264310415
1069 22 1 0.0 26.49575600413846 11.720144481146104 3.526382060477337
1070 22 1 0.0 26.741274624453464 12.791779506911835 3.4459231616787234
1071 22 1 0.0 26.766846486906783 13.94792040082586 3.6044107382897757
1072 22 1 0.0 26.44305418473668 14.891555324494924 3.7528206928437813
1073 22 1 0.0 25.671505208880816 15.365298521236294 3.6824528230440547
1074 22 1 0.0 24.59391784757155 15.418442121451404 3.4966853970274587
1075 22 1 0.0 23.464012367587998 15.243331089968777 3.4444686711293957
1076 22 1 0.0 22.53613742365686 15.033113420201055 3.775568991452904
1077 22 1 0.0 22.011783803773884 14.93689181040908 4.635927727115076
1078 22 1 0.0 21.8974878397163 14.94131770805167 5.7885509685017125
1079 22 1 0.0 22.154850095973842 14.99559857626816 6.90818064981899
1080 22 1 0.0 22.74527015744371 15.049137898575193 7.671257183567043
1081 22 1 0.0 23.609743876735074 15.071239424234589 7.926652899073116
1082 22 1 0.0 24.65158835617175 15.06795592141639 7.841663198653495
1083 22 1 0.0 25.77005171546531 15.049308737869042 7.617970451740795
1084 22 1 0.0 26.866973463633503 15.02533436319998 7.451552585932969
1085 22 1 0.0 27.901146095176877 15.006402071470808 7.41301655799819
1086 22 1 0.0 28.886881192001407 15.003205542725372 7.4507548028779595
1087 22 1 0.0 29.84079488724634 15.026451922830566 7.508086732157811
1088 22 1 0.0 30.78075143505681 15.082359310082465 7.534103695890784
1089 22 1 0.0 31.735437587233307 15.138221125909377 7.527945709509747
1090 22 1 0.0 32.73909529272275 15.141350722378494 7.514442810464224
1091 22 1 0.0 33.826011899254034 15.0388981682738 7.518634982979425
1092 22 1 0.0 34.9998342727333 14.81932459879322 7.5543979820477185
1093 22 1 0.0 36.1388512889717 14.640105209818353 7.5899318665141955
1094 22 1 0.0 37.08929743723423 14.701932562384826 7.58175729274655
1095 22 1 0.0 37.698067256688425 15.204378730326004 7.48680481652902
1096 22 1 0.0 37.90638340741605 16.186886965357953 7.320583472489326
1097 22 1 0.0 37.84701170135262 17.363742135956116 7.217552045972304
1098 22 1 0.0 37.675936063473806 18.409814680869847 7.3265879466982975
1099 22 1 0.0 37.54553940042098 19.01026455558326 7.791630733016107
1100 22 1 0.0 37.51487014700162 19.116944778666547 8.628636235620755
1101 23 1 0.0 37.543400052437995 18.96623787605131 9.717016999986908
1102 23 1 0.0 37.58574976440694 18.80838786669589 10.929533559241822
1103 23 1 0.0 37.60088800919238 18.862901167621924 12.142780469516746
1104 23 1 0.0 37.59016851576947 19.049654529840737 13.270726283594332
1105 23 1 0.0 37.578855588488075 19.11949515950783 14.248423279804186
1106 23 1 0.0 37.592482711665085 18.821367365562704 15.011161092392191
1107 23 1 0.0 37.64452915323185 17.989214195255958 15.49803811330036
1108 23 1 0.0 37.69375828168844 16.842800740878555 15.665441257950691
1109 23 1 0.0 37.68341653584246 15.711307705336884 15.474660309233984
1110 23 1 0.0 37.557089781284134 14.9232041099438 14.887325850935321
1111 23 1 0.0 37.331235329082006 14.6530825401493 13.937945667076741
1112 23 1 0.0 37.185239411237596 14.731492431341582 12.823969329335881
1113 23 1 0.0 37.32058688321166 14.942319434581915 11.764946778007785
1114 23 1 0.0 37.931265861399694 15.074104992677853 10.977441993560683
1115 23 1 0.0 38.97921234144328 15.059504721163119 10.58559232876798
1116 23 1 0.0 40.155374888445884 14.999468880947473 10.605600529856277
1117 23 1 0.0 41.135359489031075 15.004476122502135 11.047558376324128
1118 23 1 0.0 41.624949295164235 15.167229862962213 11.907285357479914
1119 23 1 0.0 41.66196470515332 15.384853866327756 13.023563948707944
1120 23 1 0.0 41.48985416882726 15.433350957806168 14.137924839500672
1121 23 1 0.0 41.35512723718482 15.086920884451356 14.99045097156742
1122 23 1 0.0 41.44088280364316 14.19765294973166 15.378935755475997
1123 23 1 0.0 41.61071175821059 13.010099453173538 15.391958999282409
1124 23 1 0.0 41.62779707234762 11.89214729663117 15.209482437637412
1125 23 1 0.0 41.25566707279024 11.211159327002843 15.01134069950827
1126 23 1 0.0 40.39138651582492 11.13554062724352 14.921329909531213
1127 23 1 0.0 39.26123458407768 11.343195176284352 14.92509150213355
1128 23 1 0.0 38.141324371410995 11.437778722954503 14.987354132659798
1129 23 1 0.0 37.30448790467038 11.031471865694778 15.07280587311789
1130 23 1 0.0 36.900424535686234 10.056377816864401 15.144611774265694
1131 23 1 0.0 36.92139032438363 8.853668051853816 15.163989479487343
1132 23 1 0.0 37.34936790945226 7.791206390510283 15.09202956078769
1133 23 1 0.0 38.15792834919595 7.210025097406438 14.900214329347401
1134 23 1 0.0 39.21567879544198 7.116338872583311 14.6896994144367
1135 23 1 0.0 40.319935122925834 7.288954990338772 14.649714305774966
1136 23 1 0.0 41.266653683026426 7.5023440694980685 14.971168059998305
1137 23 1 0.0 41.87386132732811 7.570167249464894 15.787546102013337
1138 23 1 0.0 42.083148118058276 7.525496489706969 16.910843712098668
1139 23 1 0.0 41.879081038337574 7.477717738361659 18.0412376410401
1140 23 1 0.0 41.24637346548799 7.536175845247021 18.878960345488103
1141 23 1 0.0 40.23691376964559 7.733288563656382 19.234019712643747
1142 23 1 0.0 39.085473335330214 7.892040661321562 19.215285762817583
1143 23 1 0.0 38.05765457615823 7.800109994102026 18.982011692434806
1144 23 1 0.0 37.415105384917524 7.249678221020834 18.692839729655145
1145 23 1 0.0 37.23623012298401 6.2416230308062675 18.478101218110023
1146 23 1 0.0 37.3427564904753 5.0691511221674865 18.428471294950082
1147 23 1 0.0 37.53724617121815 4.047297366814878 18.63166397302374
1148 23 1 0.0 37.63364309919 3.471412651975637 19.168757451586
1149 23 1 0.0 37.607871328085245 3.3567262614148827 20.026396064353552
1150 23 1 0.0 37.556418934715374 3.5099691302464957 21.120935724662584
1151 24 1 0.0 37.57864594663398 3.7329055628129337 22.36705800821726
1152 24 1 0.0 37.74282206841859 3.8534041915384054 23.67052199673194
1153 24 1 0.0 37.923547295449715 3.861944298865052 24.88150623589922
1154 24 1 0.0 37.920974678059665 3.8115129604066014 25.828824024732775
1155 24 1 0.0 37.5351714751949 3.7552174902668445 26.341319201280548
1156 24 1 0.0 36.670196475143186 3.7314469444811933 26.360748852411742
1157 24 1 0.0 35.54321545123219 3.7342753330611234 26.168839359934818
1158 24 1 0.0 34.43008472855073 3.749470002076749 26.111042881367016
1159 24 1 0.0 33.60456051067144 3.762913248718377 26.528311620275343
1160 24 1 0.0 33.217517345815644 3.767213354283005 27.49829787763154
1161 24 1 0.0 33.23113904257908 3.765306674768158 28.694344188057872
1162 24 1 0.0 33.59158374169466 3.7610067384965227 29.755454707717078
1163 24 1 0.0 34.24479544261062 3.7579713093865923 30.340283649879314
1164 24 1 0.0 35.13322000531632 3.757313636833248 30.428481901997237
1165 24 1 0.0 36.196451681781355 3.758072736740982 30.261369933564385
1166 24 1 0.0 37.374001583986114 3.759227149748942 30.08789731536922
1167 24 1 0.0 38.59909600780708 3.75987411080277 30.114907104920498
1168 24 1 0.0 39.761320987514075 3.7599350397569546 30.25686479054891
1169 24 1 0.0 40.73175019923415 3.759680978710333 30.304208229360185
1170 24 1 0.0 41.38140079744266 3.7593842239798674 30.046939973396277
1171 24 1 0.0 41.63710283253341 3.759249442539369 29.349896880309217
1172 24 1 0.0 41.61178712770017 3.7592558001981584 28.32744097351377
1173 24 1 0.0 41.457125396141755 3.7593355198341603 27.145878321874193
1174 24 1 0.0 41.32384784498742 3.759421130728205 25.970609599543078
1175 24 1 0.0 41.29115180633739 3.7594684417568884 24.898246240973528
1176 24 1 0.0 41.31771680531579 3.759472483005626 23.909504320493078
1177 24 1 0.0 41.35064022482527 3.7594320538419828 22.973962001963177
1178 24 1 0.0 41.34004063108414 3.759347929006199 22.060817345734524
1179 24 1 0.0 41.293123650164496 3.759258209082913 21.1320861297368
1180 24 1 0.0 41.26804019886516 3.759234304762396 20.143374562602478
1181 24 1 0.0 41.324729032376766 3.7593487956964626 19.050063920023824
1182 24 1 0.0 41.50323477733443 3.75964510466147 17.82797165996661
1183 24 1 0.0 41.689259537326336 3.759940449716663 16.611463121733998
1184 24 1 0.0 41.696359907006794 3.7599463123159844 15.609014896433514
1185 24 1 0.0 41.337684848107976 3.7593735786549547 15.02952197072148
1186 24 1 0.0 40.50737185523745 3.7581804987981435 14.978272994781348
1187 24 1 0.0 39.39893950171454 3.7572397246312543 15.177566883414329
1188 24 1 0.0 38.27506782348639 3.7576351484017745 15.261226250968333
1189 24 1 0.0 37.397551597232 3.76043426438126 14.86554254011885
1190 24 1 0.0 36.93769084207926 3.765028299886369 13.879180740136121
1191 24 1 0.0 36.89932944635174 3.767706632070776 12.657810767129906
1192 24 1 0.0 37.26818131697276 3.764422809919357 11.607663783293008
1193 24 1 0.0 38.025756384155294 3.751551294584977 11.117047203038453
1194 24 1 0.0 39.060849646338326 3.7347493871660156 11.178976276501778
1195 24 1 0.0 40.17169797976006 3.7287412837914657 11.400369694901592
1196 24 1 0.0 41.15276572078017 3.7486288962743344 11.372061842165765
1197 24 1 0.0 41.81206447028968 3.804481826840055 10.740518623600035
1198 24 1 0.0 42.07536943768157 3.8626248364731173 9.635799417509597
1199 24 1 0.0 41.929028983504054 3.8668819924851814 8.436705814754399
1200 24 1 0.0 41.35989020834826 3.7608920986393475 7.524087470385716
1201 25 1 0.0 40.39890424173418 3.5316508220392744 7.173857885928539
1202 25 1 0.0 39.257870505674475 3.3439383744968034 7.231640527132907
1203 25 1 0.0 38.19493623586305 3.408097603998611 7.432784097777987
1204 25 1 0.0 37.46734540927325 3.933267229727421 7.513729653773425
1205 25 1 0.0 37.202212181660116 4.95511197374763 7.368294513880738
1206 25 1 0.0 37.26185863549431 6.156306452337768 7.210529948896097
1207 25 1 0.0 37.476430272127594 7.176631192718429 7.293400908590028
1208 25 1 0.0 37.67903308566569 7.669058441453752 7.85963143142703
1209 25 1 0.0 37.779791589605246 7.629748818277483 8.885523749917919
1210 25 1 0.0 37.771161235253935 7.421723028423555 10.062581618093553
1211 25 1 0.0 37.64962193240653 7.425934442827955 11.068387417480082
1212 25 1 0.0 37.42311140001092 7.980858040835632 11.611668235155207
1213 25 1 0.0 37.21154726117862 9.009817339953234 11.705535800683766
1214 25 1 0.0 37.198147132675786 10.201459063700728 11.535164376475489
1215 25 1 0.0 37.56684587397148 11.241770848158021 11.2876778396083
1216 25 1 0.0 38.42976885699998 11.866359911249795 11.122665062024991
1217 25 1 0.0 39.572349029415406 12.036574414621807 11.07444626539828
1218 25 1 0.0 40.68716431352799 11.777924341538247 11.141736855276324
1219 25 1 0.0 41.46744265362345 11.116167151427756 11.323014240768336
1220 25 1 0.0 41.748285844767366 10.129581380130796 11.565855015840084
1221 25 1 0.0 41.68267257973421 9.014122194823894 11.703789435968101
1222 25 1 0.0 41.466800448604054 7.981744208636768 11.554841889336572
1223 25 1 0.0 41.29333881061681 7.241059069943568 10.943934904783037
1224 25 1 0.0 41.24530555187113 6.896784711881669 9.910373606509232
1225 25 1 0.0 41.27741681815117 6.932074403743685 8.744309361731721
1226 25 1 0.0 41.337101596807884 7.323176902356834 7.750140860506359
1227 25 1 0.0 41.37530065491009 8.041430903819728 7.20642867169863
1228 25 1 0.0 41.38169841968093 9.004004928567714 7.106674656942265
1229 25 1 0.0 41.370021403240195 10.094452604768756 7.267489655895024
1230 25 1 0.0 41.354356066104 11.19582429198343 7.502836167192717
1231 25 1 0.0 41.346451429524066 12.215211600296522 7.652980534449682
1232 25 1 0.0 41.34625196343414 13.181119423066736 7.6910289541190116
1233 25 1 0.0 41.3499842210881 14.160292520540047 7.631926358521594
1234 25 1 0.0 41.35387688696742 15.219330721699416 7.490714879898782
1235 25 1 0.0 41.35540273992014 16.368485978294316 7.31134140173651
1236 25 1 0.0 41.3551082635558 17.47879512848403 7.209165936555981
1237 25 1 0.0 41.35400631502006 18.40017188708355 7.310384018210637
1238 25 1 0.0 41.35309544715378 18.985401816189903 7.738737930384112
1239 25 1 0.0 41.35283504274866 19.195518593745504 8.525499960128752
1240 25 1 0.0 41.352993712158984 19.13024092839973 9.583471932241498
1241 25 1 0.0 41.35329485621759 18.89836415596572 10.817702042953858
1242 25 1 0.0 41.35347855412963 18.61007597918205 12.129803700494891
1243 25 1 0.0 41.35349358855495 18.392987371009966 13.378409372927258
1244 25 1 0.0 41.353430776616854 18.38656682177309 14.392900576122774
1245 25 1 0.0 41.35338365783832 18.73051009692689 15.00209816778149
1246 25 1 0.0 41.35342347195718 19.51987996569331 15.09620995743146
1247 25 1 0.0 41.35349632382463 20.59928185505689 14.909915649849063
1248 25 1 0.0 41.3535046992986 21.726017823331798 14.797969516595224
1249 25 1 0.0 41.35335118157471 22.657381281633153 15.114977440927296
1250 25 1 0.0 41.3530324267211 23.204271680851846 16.03572302215864
1251 26 1 0.0 41.352801760174465 23.323847728379857 17.244360936771578
1252 26 1 0.0 41.35295587811085 22.997982308165852 18.342141776321142
1253 26 1 0.0 41.3537797122094 22.211378590271135 18.937016058264337
1254 26 1 0.0 41.35501042248798 21.080521880442348 18.948892352817623
1255 26 1 0.0 41.35561635485678 19.90685770089442 18.735521800184202
1256 26 1 0.0 41.35450828353636 19.00568208994467 18.68744283765279
1257 26 1 0.0 41.35079373804274 18.665209552980677 19.168280883171725
1258 26 1 0.0 41.346388463987616 18.787129818495348 20.15754171040079
1259 26 1 0.0 41.3453025493216 18.984865908398078 21.34825811270804
1260 26 1 0.0 41.35159620098637 18.864942432514354 22.426607396429617
1261 26 1 0.0 41.36733964153216 18.117007928168494 23.112844434539785
1262 26 1 0.0 41.38217793060453 16.949724219859064 23.339999294983553
1263 26 1 0.0 41.380969557953 15.77169363951168 23.1230698517354
1264 26 1 0.0 41.348573082002034 14.99182640090781 22.477260518125327
1265 26 1 0.0 41.28548417186756 14.844104936787078 21.469676201273245
1266 26 1 0.0 41.23938402048385 15.034661033965795 20.324033348256425
1267 26 1 0.0 41.2668188288586 15.170456228322893 19.29347189144623
1268 26 1 0.0 41.422641750757506 14.862922821485155 18.62840288294654
1269 26 1 0.0 41.6621106684198 13.986490577603634 18.418708144270315
1270 26 1 0.0 41.787242923884776 12.820245753157884 18.50727397558927
1271 26 1 0.0 41.587005315108875 11.677736682251927 18.715951604141626
1272 26 1 0.0 40.868779141639855 10.862078361494927 18.873421551976442
1273 26 1 0.0 39.741686393058814 10.505424741415762 18.92026941326777
1274 26 1 0.0 38.561307040250774 10.600290951231445 18.888483430504596
1275 26 1 0.0 37.69043686685885 11.135103765693147 18.81272793884057
1276 26 1 0.0 37.422945768663226 12.074897387607061 18.72810890843658
1277 26 1 0.0 37.57295613280204 13.221885801440745 18.672806238582087
1278 26 1 0.0 37.75064672411224 14.309067113487803 18.686306574781852
1279 26 1 0.0 37.565476114741216 15.069203963523167 18.80809292982167
1280 26 1 0.0 36.77384208839203 15.333936474454735 19.0315856453226
1281 26 1 0.0 35.62318661727033 15.265335380275618 19.196271972188466
1282 26 1 0.0 34.46340541263015 15.094413991622705 19.10952184667713
1283 26 1 0.0 33.64206756802133 15.05007053828179 18.580984038815046
1284 26 1 0.0 33.32890154248512 15.199531944928095 17.594495472863542
1285 26 1 0.0 33.39340379862771 15.337090332368989 16.427958922799764
1286 26 1 0.0 33.676141423965504 15.230738714687789 15.38761238792283
1287 26 1 0.0 34.01828083270732 14.661914300431555 14.766656347369054
1288 26 1 0.0 34.27235004441917 13.666919689274476 14.611135328734948
1289 26 1 0.0 34.30103627337993 12.509950199613291 14.746094682379862
1290 26 1 0.0 33.96738463474775 11.463229640955603 14.988794121896424
1291 26 1 0.0 33.16815284598723 10.776513232747423 15.171176542949153
1292 26 1 0.0 32.06228666536145 10.524814548746248 15.239378183652466
1293 26 1 0.0 30.9315453203259 10.70129511616164 15.19302544323717
1294 26 1 0.0 30.058389253693637 11.29864767367114 15.032051154274335
1295 26 1 0.0 29.648739212613226 12.267195528833893 14.78929965762865
1296 26 1 0.0 29.624942895337256 13.400286858098433 14.61954962731755
1297 26 1 0.0 29.843690320439368 14.454924272224062 14.705812058516123
1298 26 1 0.0 30.161700973972355 15.189291660064004 15.229544311136333
1299 26 1 0.0 30.438727539094046 15.483166253468006 16.21228229513092
1300 26 1 0.0 30.540147009193223 15.441789920866293 17.37902733469748
1301 27 1 0.0 30.331946858124414 15.194877177241365 18.422593949849883
1302 27 1 0.0 29.68861842475076 14.87256305957414 19.04681182126906
1303 27 1 0.0 28.672850379719343 14.614289092894737 19.19928494218945
1304 27 1 0.0 27.53151165237195 14.568604643243171 19.066188254349818
1305 27 1 0.0 26.519171505194578 14.88443986345229 18.843671035472596
1306 27 1 0.0 25.87009172782508 15.67916171351407 18.710417206716873
1307 27 1 0.0 25.641562028513693 16.79507565392454 18.69290659538765
1308 27 1 0.0 25.799656194569607 17.932713438305473 18.73916915984477
1309 27 1 0.0 26.309691349241252 18.791430763865165 18.796584092706826
1310 27 1 0.0 27.123821621557234 19.152445209111452 18.823390378658797
1311 27 1 0.0 28.14010446479285 19.133406593960583 18.822458082543402
1312 27 1 0.0 29.242702133403597 18.93838026791517 18.808121147967437
1313 27 1 0.0 30.31617207175525 18.7708152855173 18.79467371231856
1314 27 1 0.0 31.30246731529939 18.744646092242622 18.790627593142844
1315 27 1 0.0 32.26057425416862 18.79128100579251 18.792704080593744
1316 27 1 0.0 33.263735963509895 18.819893507332594 18.796188174840143
1317 27 1 0.0 34.38076034120575 18.744086756220774 18.7965285715245
1318 27 1 0.0 35.56464179485255 18.59313380765481 18.79344846153646
1319 27 1 0.0 36.64432969877251 18.520198949563934 18.7912493444226
1320 27 1 0.0 37.442689507856116 18.684522845998448 18.794457267704267
1321 27 1 0.0 37.80620573909915 19.228249892064355 18.806506692910116
1322 27 1 0.0 37.812796110905175 20.126005373242013 18.82013609204212
1323 27 1 0.0 37.67146991352781 21.257526100661973 18.822025367843377
1324 27 1 0.0 37.592731428733664 22.501466760479527 18.798785330059655
1325 27 1 0.0 37.721388393134234 23.739790963748828 18.746127560878996
1326 27 1 0.0 37.90268941809316 24.86955015674445 18.701260793145806
1327 27 1 0.0 37.896548973413545 25.792093793574523 18.71321487757401
1328 27 1 0.0 37.463603642606216 26.40901624979183 18.830721846549114
1329 27 1 0.0 36.52342764761989 26.67528982079875 19.037336008471744
1330 27 1 0.0 35.35245652664333 26.665735787565588 19.170268687164718
1331 27 1 0.0 34.27576220812534 26.47150956919769 19.046786218899886
1332 27 1 0.0 33.61085799452719 26.18472133504955 18.49036125455332
1333 27 1 0.0 33.43940073533644 25.92727291337881 17.518125894590742
1334 27 1 0.0 33.56653120893644 25.855993616376015 16.37425690778369
1335 27 1 0.0 33.78163510701 26.12970282333832 15.315867412026236
1336 27 1 0.0 33.890019524819245 26.88304121723498 14.586772428219172
1337 27 1 0.0 33.87311644402459 27.983181219035387 14.283681490568217
1338 27 1 0.0 33.82187141522384 29.130984829028186 14.411834681190047
1339 27 1 0.0 33.828878919714 30.02480993444172 14.97509483927983
1340 27 1 0.0 33.953788971984984 30.428262808976644 15.941238185325332
1341 27 1 0.0 34.08949557683755 30.435219468757236 17.095380204275983
1342 27 1 0.0 34.07625522735558 30.243807509620332 18.16497844944273
1343 27 1 0.0 33.75450803325467 30.052002956563324 18.877837180091017
1344 27 1 0.0 33.03769331811518 29.989199568308766 19.093885226700127
1345 27 1 0.0 32.01999155738206 30.0149860173645 19.000182986327303
1346 27 1 0.0 30.823071913718433 30.063125541051107 18.8335438714353
1347 27 1 0.0 29.568341091580937 30.068848767538345 18.825412058439554
1348 27 1 0.0 28.367269518159496 30.02293955947106 19.003960434951505
1349 27 1 0.0 27.318572298202735 29.987496156045403 19.136420012402017
1350 27 1 0.0 26.520127221449503 30.029298183235674 18.972892439138473
1351 28 1 0.0 26.061448156887366 30.20310652508049 18.289877152967385
1352 28 1 0.0 25.927094581999867 30.41286526762454 17.195125406705298
1353 28 1 0.0 26.030055772860322 30.459673933155855 16.022274752716015
1354 28 1 0.0 26.28194223137073 30.142650780456595 15.109314361624264
1355 28 1 0.0 26.58496880484126 29.320606636436224 14.725505256751596
1356 28 1 0.0 26.78850511313244 28.188089163469197 14.75355161846152
1357 28 1 0.0 26.723459835262865 27.05693226068338 14.941117939445085
1358 28 1 0.0 26.22090270587626 26.23891202863807 15.035904509124288
1359 28 1 0.0 25.233160504000086 25.92450765405533 14.904594672997767
1360 28 1 0.0 24.044119003854355 25.9725303114896 14.739212895657264
1361 28 1 0.0 22.993819363493046 26.185617327706485 14.786885918166519
1362 28 1 0.0 22.416552797005718 26.36851584181901 15.290029534197538
1363 28 1 0.0 22.37758973935754 26.424684104727554 16.270649956845258
1364 28 1 0.0 22.563869731646058 26.396400362125345 17.440785693703734
1365 28 1 0.0 22.633920409568532 26.33636796805299 18.489197287843826
1366 28 1 0.0 22.265978942894787 26.29477189105783 19.122137323258052
1367 28 1 0.0 21.42041446875218 26.285747690747893 19.296248063391282
1368 28 1 0.0 20.268425175437475 26.29649224710181 19.155280730079646
1369 28 1 0.0 18.986277715061647 26.313554817191545 18.847484762932538
1370 28 1 0.0 17.738351107035548 26.324987823407113 18.520570653432234
1371 28 1 0.0 16.614625878715337 26.328251215758403 18.3188758978674
1372 28 1 0.0 15.676359989134001 26.324436850593244 18.385435801014307
1373 28 1 0.0 14.98474206743779 26.314645445946198 18.863222195394368
1374 28 1 0.0 14.588454239711456 26.301708699749014 19.799736335968554
1375 28 1 0.0 14.498356507220922 26.29369313356116 20.95375767568774
1376 28 1 0.0 14.718186723859018 26.299651019624523 22.029697510406653
1377 28 1 0.0 15.251180668911513 26.328343256044082 22.735017382640173
1378 28 1 0.0 16.07087998914359 26.371298038630364 22.957579172295407
1379 28 1 0.0 17.10504618293014 26.393475497341974 22.863372238167333
1380 28 1 0.0 18.277531255319975 26.357566925539825 22.6421372277756
1381 28 1 0.0 19.510659627157473 26.231937192800974 22.47631633370016
1382 28 1 0.0 20.701647388851185 26.078205619674154 22.428389773497546
1383 28 1 0.0 21.72716199205424 26.034310899288883 22.462660974533947
1384 28 1 0.0 22.463266739154662 26.240435585959517 22.5405468743983
1385 28 1 0.0 22.810754411051008 26.814973152861153 22.623754063894502
1386 28 1 0.0 22.842954447195332 27.72429545852044 22.67601003361349
1387 28 1 0.0 22.70669868075081 28.87001158776509 22.66190319827114
1388 28 1 0.0 22.549084549293266 30.153488344964853 22.54603269136792
1389 28 1 0.0 22.480219906211595 31.461870374521364 22.33569684496604
1390 28 1 0.0 22.48632387688913 32.6346682274422 22.18120585549253
1391 28 1 0.0 22.52770813495024 33.50143127427312 22.26277637685975
1392 28 1 0.0 22.564917114880128 33.89409414889812 22.7586261302164
1393 28 1 0.0 22.576394986877702 33.82802259640644 23.693251252882696
1394 28 1 0.0 22.570865737884517 33.62888082221318 24.831107093748464
1395 28 1 0.0 22.55997871152548 33.65231120770657 25.911526258561842
1396 28 1 0.0 22.55489048630566 34.23382483833684 26.681104391672704
1397 28 1 0.0 22.557385617271954 35.32605063076458 27.024574691021517
1398 28 1 0.0 22.560852008155436 36.53858292851989 26.95043155471016
1399 28 1 0.0 22.55838061083217 37.468884482548404 26.47154625878681
1400 28 1 0.0 22.544897455674818 37.77913516543993 25.616524170020657
1401 29 1 0.0 22.529635150720903 37.63606031132193 24.53663624758166
1402 29 1 0.0 22.528541798655862 37.44321843874815 23.440732569038182
1403 29 1 0.0 22.55760406243817 37.60553254880369 22.53799489185137
1404 29 1 0.0 22.61970986654218 38.38935904029584 22.000079977045303
1405 29 1 0.0 22.66910807055212 39.54652003318069 21.85930439354328
1406 29 1 0.0 22.648760327108413 40.70943455242835 22.115649352107177
1407 29 1 0.0 22.50247432039155 41.51235507162371 22.76843896052097
1408 29 1 0.0 22.261749415666323 41.779572122660554 23.74888820525866
1409 29 1 0.0 22.121021439656165 41.68847847450548 24.861661194968857
1410 29 1 0.0 22.292456932928552 41.45489141244946 25.897650796544465
1411 29 1 0.0 22.9756074620972 41.288381459262 26.652019612258528
1412 29 1 0.0 24.089872826276792 41.259791815094445 27.014751994918754
1413 29 1 0.0 25.279942573494154 41.30393292196281 26.968812281471195
1414 29 1 0.0 26.178979712361226 41.34990743725538 26.501066146535322
1415 29 1 0.0 26.474214563732474 41.33652429277313 25.61761261767887
1416 29 1 0.0 26.325238132810785 41.28739157592391 24.49258348356713
1417 29 1 0.0 26.13561129640697 41.26991534416554 23.3868978809845
1418 29 1 0.0 26.310933832458833 41.35186768265384 22.56220024456027
1419 29 1 0.0 27.125469870632354 41.55765699786193 22.20804004900995
1420 29 1 0.0 28.31250719886363 41.73307511678576 22.2170049907047
1421 29 1 0.0 29.46606547014993 41.67793108311981 22.405233372893804
1422 29 1 0.0 30.181767793538494 41.19308621141163 22.589345450734083
1423 29 1 0.0 30.290024898645434 40.23347557450276 22.656536352212587
1424 29 1 0.0 30.1009915286228 39.068854775405505 22.638207584955875
1425 29 1 0.0 29.983408151760784 38.00742489748751 22.583370955171322
1426 29 1 0.0 30.29564648061606 37.34872672095073 22.53995937755533
1427 29 1 0.0 31.124312673759356 37.16531409061465 22.52762797179135
1428 29 1 0.0 32.26435951823442 37.28614300004045 22.53568469202276
1429 29 1 0.0 33.496387261243434 37.528181760812586 22.551944079509745
1430 29 1 0.0 34.619428333673575 37.71946322139536 22.56494440531641
1431 29 1 0.0 35.61359293892306 37.79671824055865 22.570333862100544
1432 29 1 0.0 36.56176913661319 37.758373534713435 22.567796159906578
1433 29 1 0.0 37.54802464612015 37.603563950630985 22.55706132748639
1434 29 1 0.0 38.627199504520405 37.35867652807395 22.539828181099754
1435 29 1 0.0 39.72056117425501 37.174642755621434 22.526793035119102
1436 29 1 0.0 40.71124145418704 37.23795220863539 22.531221036343844
1437 29 1 0.0 41.48246540914945 37.73445147616652 22.566293366731283
1438 29 1 0.0 41.938653432019926 38.70770469913942 22.626646194061276
1439 29 1 0.0 42.03191612884676 39.88113564284618 22.665188769807045
1440 29 1 0.0 41.720879455567335 40.93443107871656 22.62912969028757
1441 29 1 0.0 40.96871398898052 41.55521605255643 22.469196714980985
1442 29 1 0.0 39.88097165386612 41.679818910386096 22.246371727889233
1443 29 1 0.0 38.73045984129075 41.536719934092694 22.151152208059994
1444 29 1 0.0 37.799545852213726 41.371098089583334 22.381438426485076
1445 29 1 0.0 37.34333625775045 41.40296975825225 23.10833894158536
1446 29 1 0.0 37.31456405920673 41.57325019147425 24.205791039497857
1447 29 1 0.0 37.477568475923924 41.6489607468286 25.362579514650626
1448 29 1 0.0 37.593835995170956 41.39448961278007 26.26468551028047
1449 29 1 0.0 37.48806667308165 40.640392079946466 26.666148575801692
1450 29 1 0.0 37.305660877365476 39.55290786014786 26.666287802008913
1451 30 1 0.0 37.293474726502744 38.404472742182165 26.473653838981633
1452 30 1 0.0 37.6979963682744 37.4673662860248 26.29662304858878
1453 30 1 0.0 38.61782767388813 36.9420982062896 26.26482053291183
1454 30 1 0.0 39.78462880402033 36.85109982903862 26.312470423486964
1455 30 1 0.0 40.87412038915689 37.18965478600791 26.344008364530545
1456 30 1 0.0 41.567781557558014 37.950316260808826 26.266823502768325
1457 30 1 0.0 41.76605963860291 39.02181151969958 26.10061259651652
1458 30 1 0.0 41.651050430557746 40.159321448668194 26.00952838759633
1459 30 1 0.0 41.4233938379935 41.10923406405965 26.167234790124823
1460 30 1 0.0 41.27235845594832 41.63687371373817 26.731825650794978
1461 30 1 0.0 41.24412031497782 41.745852889184484 27.665466557518016
1462 30 1 0.0 41.287083094448235 41.60260171077679 28.796449150282168
1463 30 1 0.0 41.347757369112664 41.37670283435559 29.950472951925786
1464 30 1 0.0 41.38041008613585 41.2180586130044 30.984938537846258
1465 30 1 0.0 41.38303408423339 41.16562536235847 31.935958478265878
1466 30 1 0.0 41.36893086505767 41.21951661106279 32.90221334589829
1467 30 1 0.0 41.35141366573551 41.37974539421459 33.98233913253751
1468 30 1 0.0 41.34068194285507 41.605928953154205 35.19904165344818
1469 30 1 0.0 41.33840245566993 41.74698787689195 36.366955150822
1470 30 1 0.0 41.344793443760686 41.63305077432393 37.26539141778559
1471 30 1 0.0 41.35995231748758 41.097805924901095 37.67852512898541
1472 30 1 0.0 41.378295879255795 40.14229427998375 37.61915217635526
1473 30 1 0.0 41.38623623003724 39.003378059236766 37.422224918212514
1474 30 1 0.0 41.369582615092924 37.93567981973663 37.44695818751756
1475 30 1 0.0 41.31682714920463 37.18420126797943 38.02503838632142
1476 30 1 0.0 41.254978612545194 36.85582219295759 39.09293949435105
1477 30 1 0.0 41.23988528509555 36.95400307223413 40.29121868591745
1478 30 1 0.0 41.32809194623103 37.47970671565042 41.25328648309762
1479 30 1 0.0 41.54847514069551 38.40716495735688 41.676862616414205
1480 30 1 0.0 41.75634450794561 39.5429222894042 41.663087939575796
1481 30 1 0.0 41.73985712740686 40.62864543069666 41.46918583335772
1482 30 1 0.0 41.287102788654735 41.405920262028715 41.352650677075275
1483 30 1 0.0 40.31185855364038 41.71230764408404 41.46314092223532
1484 30 1 0.0 39.108843934180285 41.67625663389406 41.623477769869275
1485 30 1 0.0 38.04467677842591 41.48111796034091 41.594795794670425
1486 30 1 0.0 37.48115855595702 41.308784745692655 41.14142568712554
1487 30 1 0.0 37.49369832974662 41.25447763414414 40.21774617494369
1488 30 1 0.0 37.715279987685705 41.279523753855095 39.07172629829279
1489 30 1 0.0 37.74100214697775 41.33378480926176 37.976475503189256
1490 30 1 0.0 37.191700352403494 41.36926666918398 37.196280222862455
1491 30 1 0.0 36.11254599318878 41.373326967007294 36.849958066809805
1492 30 1 0.0 34.89667185894954 41.36231228358801 36.93704014945161
1493 30 1 0.0 33.94748398567597 41.35342507229915 37.45353575907602
1494 30 1 0.0 33.59900603445917 41.360603698089086 38.37242012412438
1495 30 1 0.0 33.70002665192382 41.374958682433224 39.505576662919495
1496 30 1 0.0 33.89217986252646 41.377854973737115 40.596116112371774
1497 30 1 0.0 33.81634279748135 41.350623614289766 41.3869066702056
1498 30 1 0.0 33.220638436093154 41.28964457394066 41.70779249281829
1499 30 1 0.0 32.213189780884825 41.241813664109344 41.68057633173787
1500 30 1 0.0 30.97757360529276 41.26461450313611 41.488253648303726
1501 31 1 0.0 29.69676389906949 41.4143213497793 41.312771224377215
1502 31 1 0.0 28.50709705516726 41.65363986402845 41.25493912220488
1503 31 1 0.0 27.465855502787335 41.786670436251505 41.27803503248883
1504 31 1 0.0 26.622664085826578 41.60215011101559 41.33201453256215
1505 31 1 0.0 26.026964930737737 40.90399460311119 41.36861079467265
1506 31 1 0.0 25.72471364044844 39.78575147557586 41.37347617456687
1507 31 1 0.0 25.758736004289293 38.60096759734124 41.36271190376099
1508 31 1 0.0 26.171746696761154 37.71242034827624 41.35350021158319
1509 31 1 0.0 26.985426049093558 37.42270527880186 41.36015692121951
1510 31 1 0.0 28.05706599416434 37.564082620335455 41.37459620971712
1511 31 1 0.0 29.16663304995067 37.74757513224899 41.37819491329173
1512 31 1 0.0 30.09364416232094 37.58291961295675 41.35226871427909
1513 31 1 0.0 30.655223639932217 36.81211234240664 41.291778714642795
1514 31 1 0.0 30.80845654270399 35.669370671764256 41.24246924177996
1515 31 1 0.0 30.542980716690078 34.503395242098584 41.26189604494569
1516 31 1 0.0 29.849282517058523 33.661317226325316 41.40677633613837
1517 31 1 0.0 28.806411251724235 33.32645490293225 41.646305185051105
1518 31 1 0.0 27.658309702889525 33.37712681340988 41.786722049868324
1519 31 1 0.0 26.666910028239656 33.658376957521526 41.6164884282153
1520 31 1 0.0 26.084389710354788 34.015277284287905 40.93654547240064
1521 31 1 0.0 25.94554006140967 34.29352260120025 39.82594757896
1522 31 1 0.0 26.0715700808953 34.3394196753443 38.63699591895337
1523 31 1 0.0 26.27469493906388 33.99930104307479 37.733497929102285
1524 31 1 0.0 26.38472970460656 33.154287316346206 37.426369685800694
1525 31 1 0.0 26.38563816262837 31.99019047899086 37.563278268178145
1526 31 1 0.0 26.341164950924977 30.850517875666686 37.752132677128785
1527 31 1 0.0 26.31572640728011 30.08010453766924 37.59882331518818
1528 31 1 0.0 26.35205547102724 29.907385702579457 36.831490489299874
1529 31 1 0.0 26.403368644272465 30.08025870469795 35.682963654611385
1530 31 1 0.0 26.39978543173494 30.222632669676887 34.516291970028156
1531 31 1 0.0 26.272009473471442 29.959822816316176 33.69335317445714
1532 31 1 0.0 26.03697310511354 29.12471996351173 33.40308872147803
1533 31 1 0.0 25.88816760079761 27.975239655028332 33.4803416202653
1534 31 1 0.0 26.040698708288183 26.82132927048506 33.716605890963145
1535 31 1 0.0 26.699480577466648 25.967250228675795 33.907844285188446
1536 31 1 0.0 27.801305483454954 25.567676955854267 33.96758351989693
1537 31 1 0.0 28.9946573443312 25.616434711854804 33.935765486951716
1538 31 1 0.0 29.913784513947295 26.099406639734532 33.85857397616207
1539 31 1 0.0 30.23919752543144 26.987983170765148 33.78083573980874
1540 31 1 0.0 30.107066606144947 28.110808658883705 33.734011378491324
1541 31 1 0.0 29.912717286544467 29.215340986181833 33.74195952771579
1542 31 1 0.0 30.054468756414494 30.048100200811188 33.82845100810086
1543 31 1 0.0 30.817994748014698 30.418285538001406 33.99330756991162
1544 31 1 0.0 31.973004742498865 30.422193649342564 34.126654004288035
1545 31 1 0.0 33.14156715227754 30.238272942664505 34.08722576435214
1546 31 1 0.0 33.94654691125159 30.04470888616598 33.734080456657814
1547 31 1 0.0 34.19068669306537 29.959709349778922 32.998520253211666
1548 31 1 0.0 34.08231543985193 29.96624540143463 31.97474354521143
1549 31 1 0.0 33.885306178557975 30.02876774734644 30.77925697765234
1550 31 1 0.0 33.85631682353791 30.11171719835224 29.528337105987763
1551 32 1 0.0 34.025043779188074 30.179223292344854 28.3310226956309
1552 32 1 0.0 34.154046411996106 30.19504919437896 27.28783352658552
1553 32 1 0.0 33.9905669036419 30.122937062311923 26.49880091467544
1554 32 1 0.0 33.31184731500932 29.93793985811218 26.053947662050742
1555 32 1 0.0 32.2287817664996 29.74090681981969 25.931984082650736
1556 32 1 0.0 31.060565631977607 29.711222657500564 26.042127345808534
1557 32 1 0.0 30.129566334254175 30.029468033512046 26.292536366754135
1558 32 1 0.0 29.69196314282091 30.818822868249473 26.58284588158369
1559 32 1 0.0 29.667377576007414 31.910592121702624 26.769346335673283
1560 32 1 0.0 29.868722396564184 33.04353909139057 26.69458546513636
1561 32 1 0.0 30.109000088768575 33.95658426007079 26.201425351465172
1562 32 1 0.0 30.249928667567122 34.46003330048158 25.25015096194184
1563 32 1 0.0 30.274360493190816 34.54169581752588 24.093026930215924
1564 32 1 0.0 30.183658222824853 34.216505436855826 23.026934718601165
1565 32 1 0.0 29.98115160589117 33.50143148265411 22.343548144361773
1566 32 1 0.0 29.745299573040473 32.4911927414667 22.135645364731086
1567 32 1 0.0 29.651387438277506 31.380711397844067 22.239668089366774
1568 32 1 0.0 29.881094798741366 30.37152693294114 22.475129916323972
1569 32 1 0.0 30.59447650607472 29.657462576827093 22.669604497848777
1570 32 1 0.0 31.678705579718685 29.334970483707266 22.752375000210527
1571 32 1 0.0 32.834127530280085 29.433838070933525 22.722359621722426
1572 32 1 0.0 33.757452135540376 29.982555435277586 22.579831684327196
1573 32 1 0.0 34.20157689466076 30.969776696648974 22.345807591523926
1574 32 1 0.0 34.23688416852031 32.1590655229046 22.15851110489079
1575 32 1 0.0 34.04515289373872 33.23500762542393 22.197290776243413
1576 32 1 0.0 33.80822068064164 33.88234230045907 22.641378169362724
1577 32 1 0.0 33.66488431906463 33.951746480621324 23.557917598093947
1578 32 1 0.0 33.63573890728454 33.749606564270856 24.70623158307305
1579 32 1 0.0 33.7212669122767 33.65985028055901 25.793265169183513
1580 32 1 0.0 33.920414643923785 34.060116465801734 26.529599764844857
1581 32 1 0.0 34.159557305607855 35.03094419099104 26.797605800993953
1582 32 1 0.0 34.262604391896865 36.233386873525454 26.72220869784174
1583 32 1 0.0 34.04572639019789 37.29681511208653 26.44665351463324
1584 32 1 0.0 33.34375641561166 37.87401450598582 26.114246545753137
1585 32 1 0.0 32.26024539872602 37.9549165228591 25.869175792770076
1586 32 1 0.0 31.10034693453313 37.78239270885286 25.856290748629096
1587 32 1 0.0 30.17410578290595 37.60545129304316 26.220456954988595
1588 32 1 0.0 29.738457934856 37.62689649998118 27.061038736792362
1589 32 1 0.0 29.716399104964687 37.759008439768756 28.191295332894615
1590 32 1 0.0 29.901445612362426 37.801421670718874 29.313553829913243
1591 32 1 0.0 30.086868994404522 37.55356690778557 30.12996309835124
1592 32 1 0.0 30.130761278293544 36.88625549342507 30.450011380543206
1593 32 1 0.0 30.08811130838371 35.88712246881151 30.409237843749228
1594 32 1 0.0 30.05115502070183 34.68481954720107 30.204860908689636
1595 32 1 0.0 30.110550812697888 33.407887727518236 30.032465817888095
1596 32 1 0.0 30.262645472667504 32.17824906012919 29.989999844176026
1597 32 1 0.0 30.357798364529117 31.107579950552932 30.024273874900125
1598 32 1 0.0 30.233833624031167 30.30667706075315 30.069121453057697
1599 32 1 0.0 29.737895208824764 29.878159271275813 30.06261381626308
1600 32 1 0.0 28.871262534196582 29.789397590519958 30.01290712498958
1601 33 1 0.0 27.76185765458852 29.896639034185082 29.985741561791205
1602 33 1 0.0 26.5413572674578 30.052836064685074 30.048564533958395
1603 33 1 0.0 25.33495794074257 30.12905675839363 30.244227380693417
1604 33 1 0.0 24.222428235294405 30.12336607300528 30.443154277156435
1605 33 1 0.0 23.26410154505825 30.08816121064554 30.44200101360064
1606 33 1 0.0 22.520237503250307 30.07604108561495 30.03716142576712
1607 33 1 0.0 22.04948164740966 30.116736981324088 29.128728689325598
1608 33 1 0.0 21.905049247476764 30.16304709922688 27.965669453369202
1609 33 1 0.0 22.139014837729103 30.151608317475404 26.87023817572164
1610 33 1 0.0 22.802020927186167 30.020237555321913 26.162196845289444
1611 33 1 0.0 23.833236759130614 29.798609773206273 25.96728597804742
1612 33 1 0.0 24.98249292107805 29.672421897238802 26.081698331299563
1613 33 1 0.0 25.981231377971195 29.842523749952612 26.269620892957185
1614 33 1 0.0 26.572509945520157 30.496175440717305 26.306616508042858
1615 33 1 0.0 26.72176077145956 31.560475042741697 26.186027905046515
1616 33 1 0.0 26.59443148163093 32.728516850229305 26.097080795521137
1617 33 1 0.0 26.363098034938954 33.68505551841788 26.23598194647557
1618 33 1 0.0 26.186826780523397 34.156745363285225 26.77340364517804
1619 33 1 0.0 26.118844831416897 34.198498005275 27.67997170255858
1620 33 1 0.0 26.162490122321167 34.01995489663308 28.832016517944872
1621 33 1 0.0 26.320807279848704 33.8316652868567 30.105314859162597
1622 33 1 0.0 26.56330226771638 33.78833216005067 31.375664669277086
1623 33 1 0.0 26.73438117250913 33.83635082387616 32.51894287541226
1624 33 1 0.0 26.649287943479145 33.87355780874187 33.41104481673346
1625 33 1 0.0 26.12479886873458 33.798717393119496 33.92885441210116
1626 33 1 0.0 25.138748763807722 33.60810605799525 34.05316157313547
1627 33 1 0.0 23.969460247253974 33.47992935057802 33.95861420820032
1628 33 1 0.0 22.92812167558166 33.61229123976404 33.841063369537785
1629 33 1 0.0 22.31465773309393 34.193285323425755 33.88706679363897
1630 33 1 0.0 22.177101670629828 35.187141555239684 34.07535420286168
1631 33 1 0.0 22.31551702727132 36.337711599076016 34.18006299956799
1632 33 1 0.0 22.519488074779286 37.37953387246323 33.966684459147764
1633 33 1 0.0 22.600591693019854 38.06660150367212 33.239108400271725
1634 33 1 0.0 22.563511746128643 38.32373049487474 32.13838460271552
1635 33 1 0.0 22.513082521737886 38.16433013879121 30.980422978933614
1636 33 1 0.0 22.554987752773346 37.60256114936443 30.08261655160233
1637 33 1 0.0 22.74368378381618 36.68394188058622 29.681349784245324
1638 33 1 0.0 22.92166522299719 35.583738074527574 29.677820916375843
1639 33 1 0.0 22.87661294288491 34.51076841134627 29.88654834917966
1640 33 1 0.0 22.39728582241606 33.673428049157145 30.122426337009692
1641 33 1 0.0 21.432885020724882 33.21707586090582 30.256302213269336
1642 33 1 0.0 20.261812220164945 33.15773088446736 30.273829601052906
1643 33 1 0.0 19.20286967814305 33.49553914614546 30.17475153035483
1644 33 1 0.0 18.565567886878586 34.2269875093099 29.962072367512068
1645 33 1 0.0 18.41405211509892 35.25193627468599 29.724917738315
1646 33 1 0.0 18.54811087461782 36.36614017999691 29.645200406545896
1647 33 1 0.0 18.754435986315386 37.36019639332854 29.90942997127531
1648 33 1 0.0 18.839211037063535 38.03660946175461 30.673485463025195
1649 33 1 0.0 18.80110276788693 38.31547050025645 31.79076596000686
1650 33 1 0.0 18.74847550286589 38.183884084582424 32.9422849629119
1651 34 1 0.0 18.790968877550302 37.629733869042035 33.807051868986036
1652 34 1 0.0 18.989740489148794 36.67998918342253 34.14643021606856
1653 34 1 0.0 19.1833762444039 35.541054157734884 34.099855523205385
1654 34 1 0.0 19.146631165233636 34.47079266533122 33.91518980805674
1655 34 1 0.0 18.654991781681588 33.72654045067341 33.839689672401974
1656 34 1 0.0 17.649526512620383 33.445985752633284 33.98251771336452
1657 34 1 0.0 16.445445076705433 33.49646675203402 34.14080560029315
1658 34 1 0.0 15.409318467182091 33.708208582902735 34.06885009986336
1659 34 1 0.0 14.897185829310883 33.91374574756547 33.52867092653196
1660 34 1 0.0 14.932449372149547 34.01855162826488 32.526208680426016
1661 34 1 0.0 15.146221421030724 34.01411887211586 31.355068034612216
1662 34 1 0.0 15.147050013096 33.896887904810065 30.32539993396535
1663 34 1 0.0 14.582012781609631 33.67305091544616 29.72367579393366
1664 34 1 0.0 13.527860001430412 33.457549375880156 29.572298703673365
1665 34 1 0.0 12.330130591928429 33.43335462413656 29.72847955574548
1666 34 1 0.0 11.338479764245957 33.78447982342161 30.04689945101887
1667 34 1 0.0 10.83682892246138 34.63121648529781 30.381157763033475
1668 34 1 0.0 10.7740888447297 35.769100392804596 30.579340870332498
1669 34 1 0.0 10.99271631746918 36.890471964518504 30.48778332546167
1670 34 1 0.0 11.335133471956663 37.68797949924625 29.953158361913705
1671 34 1 0.0 11.647242621666846 37.98452950401638 28.94825490437559
1672 34 1 0.0 11.783618350258509 37.927619070812845 27.760129719349354
1673 34 1 0.0 11.60016356173559 37.71446240936 26.723975569935455
1674 34 1 0.0 10.957698424287548 37.53952288074916 26.1676875037479
1675 34 1 0.0 9.905678574364984 37.491736137887806 26.13920652764169
1676 34 1 0.0 8.737154007271037 37.5237646574192 26.324955076726237
1677 34 1 0.0 7.761309518134336 37.57924467896249 26.387409917516134
1678 34 1 0.0 7.262791453801227 37.605571760075904 26.011391072252113
1679 34 1 0.0 7.21572664461493 37.59771339829398 25.164459219190753
1680 34 1 0.0 7.381221051801415 37.58327212843802 24.008139206563936
1681 34 1 0.0 7.516214237885707 37.59048878230711 22.70774955816679
1682 34 1 0.0 7.433244262235744 37.63780419531318 21.42118391901879
1683 34 1 0.0 7.259730234819704 37.68815710598631 20.264285271574956
1684 34 1 0.0 7.2338161609362475 37.684969473882006 19.338109886921934
1685 34 1 0.0 7.593592330380673 37.57172730736093 18.743615184796937
1686 34 1 0.0 8.453191900380986 37.35224171600214 18.52357161953873
1687 34 1 0.0 9.58558670933145 37.19635371556444 18.560604428801447
1688 34 1 0.0 10.705563493235829 37.30222074151059 18.710026065009675
1689 34 1 0.0 11.53071066349806 37.86378057759704 18.82878588238196
1690 34 1 0.0 11.91161792421977 38.874655463592916 18.851540329495315
1691 34 1 0.0 11.887038441085586 40.04507140002371 18.822881898158855
1692 34 1 0.0 11.509977491785126 41.06378903537608 18.79572999332609
1693 34 1 0.0 10.834200361701908 41.638711740062654 18.818489595465127
1694 34 1 0.0 9.924447665275325 41.754184391326106 18.874372536854096
1695 34 1 0.0 8.85371047385081 41.60236055510871 18.897583166080093
1696 34 1 0.0 7.695180940665237 41.38045855495398 18.8211314109045
1697 34 1 0.0 6.522648200826305 41.260067908389935 18.60693256166816
1698 34 1 0.0 5.413663930032526 41.251249906015346 18.399080975631684
1699 34 1 0.0 4.447241809302705 41.3013010333107 18.41246008419631
1700 34 1 0.0 3.7023931775167975 41.357386789612576 18.86203572022966
1701 35 1 0.0 3.2487210680481677 41.38116770460247 19.836548552252722
1702 35 1 0.0 3.127186972345854 41.37843127843405 21.040474161555352
1703 35 1 0.0 3.3733218291603713 41.36333166411864 22.10542990789452
1704 35 1 0.0 4.021075755617123 41.34991259961809 22.66782042695938
1705 35 1 0.0 5.009378189237323 41.34558094946516 22.65180591471183
1706 35 1 0.0 6.129777884839715 41.347449535453 22.427866369303917
1707 35 1 0.0 7.161134154538278 41.35174486467503 22.404909820659796
1708 35 1 0.0 7.889275165053761 41.3548423460588 22.965731307568642
1709 35 1 0.0 8.21564026970526 41.355587624848866 24.059919257190003
1710 35 1 0.0 8.136846085928667 41.35485997591745 25.280423424381524
1711 35 1 0.0 7.6523427794706365 41.35359921787962 26.20957597673406
1712 35 1 0.0 6.781839490885664 41.35266141517516 26.504799127794243
1713 35 1 0.0 5.687407654079016 41.352314081412565 26.351182026439094
1714 35 1 0.0 4.592154041344244 41.35257239934566 26.16004177275906
1715 35 1 0.0 3.7194103877882974 41.35345055598342 26.343535338096903
1716 35 1 0.0 3.240053729635798 41.35476381387224 27.157645539088126
1717 35 1 0.0 3.148094233158878 41.355656701614734 28.331766831370416
1718 35 1 0.0 3.400303280059605 41.35513252681014 29.484422083735474
1719 35 1 0.0 3.953420350413358 41.35221662407183 30.236995995473645
1720 35 1 0.0 4.761686388087073 41.34765948430513 30.43501190134156
1721 35 1 0.0 5.7750899232684745 41.34514774886694 30.30546857621034
1722 35 1 0.0 6.94320540424936 41.34865396891385 30.112511245201137
1723 35 1 0.0 8.212213238739343 41.36165598815477 30.106794969456526
1724 35 1 0.0 9.463104946399511 41.37812986985909 30.279871016924993
1725 35 1 0.0 10.518122360666585 41.38348845991167 30.389780512862146
1726 35 1 0.0 11.197405483146474 41.36283824608689 30.186210511514034
1727 35 1 0.0 11.362804851193713 41.30688714529034 29.46355370913168
1728 35 1 0.0 11.203746898056266 41.250334194010534 28.367300923069788
1729 35 1 0.0 11.064389960239325 41.248657825952904 27.208785699617273
1730 35 1 0.0 11.289807428360778 41.35745903559284 26.300322890061587
1731 35 1 0.0 12.101062127293675 41.585453611955344 25.87195823483651
1732 35 1 0.0 13.255612330006763 41.76608038654805 25.846180339680863
1733 35 1 0.0 14.40260079489999 41.69182688061288 26.07362085990588
1734 35 1 0.0 15.192884695692523 41.156887495263646 26.40494127431636
1735 35 1 0.0 15.45878414510934 40.13612197824822 26.69395974070142
1736 35 1 0.0 15.3718717557323 38.942151445114746 26.800395959294207
1737 35 1 0.0 15.140920125158297 37.92463348962671 26.584616750955195
1738 35 1 0.0 14.96893571894383 37.41836629757118 25.91607714958997
1739 35 1 0.0 14.929524943173213 37.424682178045636 24.868184387960728
1740 35 1 0.0 14.968658677215483 37.61599479060122 23.715516752628623
1741 35 1 0.0 15.026894595806127 37.65076788598542 22.741184481318427
1742 35 1 0.0 15.050924963598627 37.22273339060834 22.198724909514468
1743 35 1 0.0 15.041442695184942 36.33607664885817 22.081355455174844
1744 35 1 0.0 15.02720470599955 35.15632485922259 22.247005935217164
1745 35 1 0.0 15.037207699503565 33.85038377790289 22.552450224928844
1746 35 1 0.0 15.086699882248933 32.57419753018895 22.85578488530433
1747 35 1 0.0 15.133914304715185 31.438252246851402 23.020591668374408
1748 35 1 0.0 15.122306503143923 30.54125199565191 22.911874009354356
1749 35 1 0.0 14.995841974505984 29.981427200824317 22.395426111315683
1750 35 1 0.0 14.77500810959527 29.785942380187254 21.4556943060059
1751 36 1 0.0 14.637629520307476 29.83584292575496 20.32108642783641
1752 36 1 0.0 14.780887457501386 29.994197712961377 19.250024027583855
1753 36 1 0.0 15.393194394288923 30.12687637862359 18.495584197991583
1754 36 1 0.0 16.430538636672352 30.173985203542543 18.16918447067382
1755 36 1 0.0 17.59800243410872 30.155770257013078 18.229318340573364
1756 36 1 0.0 18.588196095265804 30.09646116580486 18.626877814023857
1757 36 1 0.0 19.12322193227056 30.02123713998016 19.31197987723168
1758 36 1 0.0 19.217176080903442 29.964679004410062 20.227068213007275
1759 36 1 0.0 19.050903438277658 29.966736559255335 21.31020451477218
1760 36 1 0.0 18.807199871819815 30.067422422003325 22.499399206415248
1761 36 1 0.0 18.642604397162167 30.274355047837656 23.72316874041263
1762 36 1 0.0 18.592842674118778 30.446100466028 24.866345788896165
1763 36 1 0.0 18.65891481728399 30.39838236675729 25.801206936308944
1764 36 1 0.0 18.841586747840015 29.947482640233606 26.400367142596835
1765 36 1 0.0 19.08917640306022 29.03721249251952 26.61347934334492
1766 36 1 0.0 19.2312420696741 27.900151845960533 26.564636030886454
1767 36 1 0.0 19.080999699660538 26.808617646422544 26.401934059449605
1768 36 1 0.0 18.45868876252765 26.03039698050093 26.270872135428913
1769 36 1 0.0 17.407279640801136 25.689625311914305 26.234556084906348
1770 36 1 0.0 16.232934270293747 25.740691151681926 26.25873160619656
1771 36 1 0.0 15.25700097441837 26.12818846010273 26.30352663131928
1772 36 1 0.0 14.771273184127317 26.796955421801094 26.331725387463468
1773 36 1 0.0 14.737066326257027 27.694561098118314 26.33581436268821
1774 36 1 0.0 14.908543068159068 28.7702863395023 26.326898244223408
1775 36 1 0.0 15.03667581124647 29.97343835889147 26.316368449762013
1776 36 1 0.0 14.93694397785803 31.23833894659031 26.31340776709181
1777 36 1 0.0 14.754336118660708 32.422762666283894 26.315917053686647
1778 36 1 0.0 14.738778949842445 33.36010622730662 26.31820423144163
1779 36 1 0.0 15.139849367193438 33.88407020196383 26.314587388088423
1780 36 1 0.0 16.058787532466855 33.94654554872862 26.303782042313077
1781 36 1 0.0 17.226399642784944 33.794574212200445 26.295485198899563
1782 36 1 0.0 18.316619130608665 33.72051269821228 26.30107985132106
1783 36 1 0.0 19.009105174703706 34.01191077571334 26.33139644666563
1784 36 1 0.0 19.20414037182103 34.77110589996979 26.375974814939354
1785 36 1 0.0 19.087473329687125 35.860788163090284 26.396806724455118
1786 36 1 0.0 18.86381742399979 37.127726824361936 26.35405380411174
1787 36 1 0.0 18.72581088369214 38.42086106816811 26.2161935635431
1788 36 1 0.0 18.712858490892415 39.616666398610484 26.057231924838415
1789 36 1 0.0 18.759034632287243 40.61054637698164 26.02371347345346
1790 36 1 0.0 18.79634319614678 41.298276636779605 26.263608700319814
1791 36 1 0.0 18.772373122090563 41.60438651656971 26.89317775431415
1792 36 1 0.0 18.723182912489793 41.616627641313976 27.84867495479131
1793 36 1 0.0 18.716008640146356 41.48027282373306 29.00291874267108
1794 36 1 0.0 18.818032832146617 41.340594225975806 30.22867730127554
1795 36 1 0.0 19.033013473713517 41.296145892883835 31.413727124702877
1796 36 1 0.0 19.189767785876246 41.316621606326 32.48724138536435
1797 36 1 0.0 19.087207595478358 41.34968702352678 33.38546984521527
1798 36 1 0.0 18.528471331496743 41.34396557161941 34.044836912019456
1799 36 1 0.0 17.518322258658355 41.29376990857461 34.410098256141204
1800 36 1 0.0 16.347340757283817 41.25818032936161 34.43781968749008
1801 37 1 0.0 15.327817625255044 41.30119682188236 34.08546410382286
1802 37 1 0.0 14.752884484750702 41.476779414880966 33.32086332466352
1803 37 1 0.0 14.638178935311961 41.69347328746909 32.262028585203495
1804 37 1 0.0 14.790324947411293 41.75029446510998 31.14008903352216
1805 37 1 0.0 15.01082914972452 41.443577338971274 30.188943316636887
1806 37 1 0.0 15.12730324576747 40.6237847586631 29.614137300307593
1807 37 1 0.0 15.132274966834213 39.48333034048462 29.442101176806172
1808 37 1 0.0 15.082491439806564 38.34778559844548 29.629516306549952
1809 37 1 0.0 15.03483373969635 37.54294985350221 30.132904777538023
1810 37 1 0.0 15.027621403461383 37.270230106741444 30.905221841547345
1811 37 1 0.0 15.042542500471757 37.35151095057837 31.888540291730447
1812 37 1 0.0 15.050522946481037 37.53655314527253 33.02286483618968
1813 37 1 0.0 15.023029908187667 37.578179372231006 34.24770260988769
1814 37 1 0.0 14.964241254847618 37.41426065847455 35.472489729608014
1815 37 1 0.0 14.929172407245083 37.27026212316583 36.55992724328585
1816 37 1 0.0 14.977227838473151 37.39647827783967 37.368681333767064
1817 37 1 0.0 15.159380258134652 38.02506421266012 37.76817621876611
1818 37 1 0.0 15.386288062186653 39.08631402957518 37.806862280617004
1819 37 1 0.0 15.452867584956538 40.261523619346505 37.680864481961834
1820 37 1 0.0 15.15057501831844 41.22454499909754 37.59072255978994
1821 37 1 0.0 14.321265715978754 41.69713341052684 37.697581388929656
1822 37 1 0.0 13.161803591060327 41.73847142803367 37.885090886840175
1823 37 1 0.0 12.021579544874202 41.55271496095417 37.91767716929327
1824 37 1 0.0 11.25055283847649 41.34457163390768 37.559322511360556
1825 37 1 0.0 11.062844239964258 41.26521279720617 36.68295913067097
1826 37 1 0.0 11.213529478903148 41.284892297094686 35.529698613530556
1827 37 1 0.0 11.360814266912891 41.33568584827427 34.418347628550684
1828 37 1 0.0 11.16514534076288 41.3502626501561 33.66547618532591
1829 37 1 0.0 10.463564987513157 41.308059230482606 33.41140279976647
1830 37 1 0.0 9.394285090057478 41.26827005737812 33.49586315299028
1831 37 1 0.0 8.124921218984339 41.29787649911406 33.729246524876054
1832 37 1 0.0 6.821222078469759 41.45688829636538 33.927281090356836
1833 37 1 0.0 5.612961889180464 41.67097204641786 34.008575439860536
1834 37 1 0.0 4.597430121568522 41.744483266312166 33.984638583032286
1835 37 1 0.0 3.870749605184989 41.47742076826157 33.870315908222594
1836 37 1 0.0 3.511340259564795 40.71005037483879 33.68959458121225
1837 37 1 0.0 3.458250591604754 39.59965189737202 33.538433123529515
1838 37 1 0.0 3.5845586312462134 38.45356148689079 33.54685719124536
1839 37 1 0.0 3.7629485130674105 37.580010853407735 33.84509553433824
1840 37 1 0.0 3.886670074717945 37.19982807330913 34.520491120438685
1841 37 1 0.0 3.9260298767144985 37.20635241549815 35.499700076863625
1842 37 1 0.0 3.8693785270558707 37.41623647739482 36.67175117190913
1843 37 1 0.0 3.7056302576452134 37.64669086302237 37.925672676252475
1844 37 1 0.0 3.4837770995971487 37.774405216265386 39.15043981849014
1845 37 1 0.0 3.3653600142365283 37.78749640361207 40.23492845890439
1846 37 1 0.0 3.5242926348362 37.6863306525068 41.06800353407141
1847 37 1 0.0 4.125218640265271 37.47515906436743 41.543706260558395
1848 37 1 0.0 5.124022231121627 37.24572014653977 41.6726477390361
1849 37 1 0.0 6.270270540815564 37.176216241000596 41.58064512840821
1850 37 1 0.0 7.304749251779139 37.4485298405524 41.3984190905536
1851 38 1 0.0 7.987094289189148 38.211003695965026 41.24855220668363
1852 38 1 0.0 8.243291772982525 39.3159980237169 41.18180987653447
1853 38 1 0.0 8.085958048246619 40.46173415500985 41.21155725146986
1854 38 1 0.0 7.528455104934092 41.345106714711555 41.35083757092136
1855 38 1 0.0 6.614998326046637 41.74063319051286 41.58127422146757
1856 38 1 0.0 5.518041439309405 41.745460980696954 41.75389782425352
1857 38 1 0.0 4.4433507355130715 41.540547277465976 41.68581482786975
1858 38 1 0.0 3.596309219989976 41.30649737934374 41.19508024876922
1859 38 1 0.0 3.1243036177650803 41.17065411895348 40.24326551048979
1860 38 1 0.0 3.055225509957933 41.15061870421587 39.08764227159922
1861 38 1 0.0 3.4022291226319736 41.2504578910664 38.02195094756366
1862 38 1 0.0 4.17377229703853 41.470756998453425 37.33238717989349
1863 38 1 0.0 5.253362958691891 41.719475788520455 37.10441372557587
1864 38 1 0.0 6.389358327899338 41.804386606329174 37.206372819818185
1865 38 1 0.0 7.3233751426501685 41.52826506745792 37.49577806740452
1866 38 1 0.0 7.8227700586051 40.727308483971406 37.829777272370166
1867 38 1 0.0 7.91040816363903 39.56947611759773 38.061887101425846
1868 38 1 0.0 7.755365051860583 38.412572559980184 38.043546362552185
1869 38 1 0.0 7.528437898205639 37.61663776934696 37.626169397623734
1870 38 1 0.0 7.375812183257717 37.433157739163 36.72754028662048
1871 38 1 0.0 7.330173046156387 37.61300635999001 35.57151663004376
1872 38 1 0.0 7.391508898443662 37.76284317596159 34.47012847261949
1873 38 1 0.0 7.559597420510128 37.49023554204551 33.73473025240941
1874 38 1 0.0 7.786614249039329 36.61386197385179 33.51997048912376
1875 38 1 0.0 7.916720211566831 35.43143780873023 33.62491297238983
1876 38 1 0.0 7.779176589996501 34.30675664719702 33.79957219059871
1877 38 1 0.0 7.209142644440025 33.59569115301039 33.80101817263289
1878 38 1 0.0 6.229576120725603 33.40190215116504 33.61097756249389
1879 38 1 0.0 5.085785423023661 33.53043534110587 33.47716714825633
1880 38 1 0.0 4.035949214405746 33.769051769259214 33.66269994863834
1881 38 1 0.0 3.324272640800919 33.91959121870948 34.39759597474447
1882 38 1 0.0 3.0382894097331863 33.94174463488807 35.54083557381063
1883 38 1 0.0 3.167129229155532 33.894347937384566 36.71835223209845
1884 38 1 0.0 3.6983978119214 33.83777251645453 37.55247020986718
1885 38 1 0.0 4.594398814498201 33.82083300340104 37.76554270823153
1886 38 1 0.0 5.687894919318864 33.83317596079137 37.59204914574317
1887 38 1 0.0 6.770302612552928 33.84556300300824 37.42992665196036
1888 38 1 0.0 7.633159307602711 33.828805478899454 37.676668643632695
1889 38 1 0.0 8.120907446841732 33.775785032866466 38.533698805996934
1890 38 1 0.0 8.21039027594005 33.73461671371595 39.711754202266775
1891 38 1 0.0 7.898826492941251 33.76191556098638 40.846059046423186
1892 38 1 0.0 7.185821623929204 33.911573812651504 41.578019364204444
1893 38 1 0.0 6.163358260607401 34.13210350561502 41.78829496109812
1894 38 1 0.0 5.0431829125599075 34.235394608709406 41.66773053360038
1895 38 1 0.0 4.045022302098049 34.02423357122913 41.42783928553918
1896 38 1 0.0 3.3777368909008603 33.32367416240092 41.268309417294
1897 38 1 0.0 3.111906373067353 32.24213737375087 41.23834768867846
1898 38 1 0.0 3.222868408611769 31.08321573885965 41.28351550995829
1899 38 1 0.0 3.6840790572914854 30.154357597487337 41.34732667536292
1900 38 1 0.0 4.458995260109444 29.7066476448897 41.38144507718585
1901 39 1 0.0 5.454182137273392 29.670479279278386 41.38390608604094
1902 39 1 0.0 6.556111680641471 29.86298372335847 41.36912261245168
1903 39 1 0.0 7.651287858683424 30.10122203733556 41.3515211971255
1904 39 1 0.0 8.66619978587481 30.245364482376154 41.34183154573543
1905 39 1 0.0 9.637866046707781 30.274746499992137 41.3405643386941
1906 39 1 0.0 10.622243603263577 30.18912157206624 41.346479304754276
1907 39 1 0.0 11.673929225765107 29.98975063019924 41.35826882936404
1908 39 1 0.0 12.782315998417685 29.750157410272998 41.37139705361145
1909 39 1 0.0 13.844182017883318 29.646507371777865 41.37674273653872
1910 39 1 0.0 14.749250397175322 29.862784748474443 41.36483534388022
1911 39 1 0.0 15.389883970136296 30.56447976062357 41.32802027975155
1912 39 1 0.0 15.69679098420315 31.648432781489472 41.28502183937651
1913 39 1 0.0 15.629619438687513 32.80873086433693 41.274472789209845
1914 39 1 0.0 15.148729095930129 33.734474415763096 41.33549553756122
1915 39 1 0.0 14.245928219666633 34.167871452768445 41.4882358719672
1916 39 1 0.0 13.112163989609263 34.18741921112241 41.632675390193164
1917 39 1 0.0 12.016096781001846 34.00285049993923 41.621902077423755
1918 39 1 0.0 11.226508736269446 33.82415931566746 41.308930031686316
1919 39 1 0.0 10.914144493442752 33.79357642327106 40.60520839041586
1920 39 1 0.0 10.949973800012371 33.84612907487191 39.600866456868395
1921 39 1 0.0 11.147867190189066 33.87737771617978 38.42006739510463
1922 39 1 0.0 11.323135296517417 33.78477947345629 37.18667661495076
1923 39 1 0.0 11.378596229143527 33.58104313808624 36.006466510420616
1924 39 1 0.0 11.353341916185071 33.45835684269868 34.957033548039654
1925 39 1 0.0 11.298261559652982 33.62444631165069 34.11353499406296
1926 39 1 0.0 11.262103026484333 34.271070531840735 33.54877231789091
1927 39 1 0.0 11.257869217104831 35.32345827603573 33.2962220459577
1928 39 1 0.0 11.269019668979032 36.48654999043061 33.356858476359
1929 39 1 0.0 11.278127039852468 37.45867315541042 33.73068020353876
1930 39 1 0.0 11.271025787753773 37.97874430412552 34.410923286413855
1931 39 1 0.0 11.256581294828642 38.07227121171365 35.343074863357245
1932 39 1 0.0 11.253575032370794 37.88815506514994 36.452063516322866
1933 39 1 0.0 11.280824966315294 37.57577798442821 37.66273619373934
1934 39 1 0.0 11.342125048951507 37.280514916334596 38.890332281388794
1935 39 1 0.0 11.390384326336328 37.134168892868175 40.01755126354529
1936 39 1 0.0 11.367749472696374 37.265672428929896 40.92021029836067
1937 39 1 0.0 11.21754793526867 37.80234586932624 41.47531093453629
1938 39 1 0.0 10.9767268374946 38.743685801949816 41.65376121994691
1939 39 1 0.0 10.842218658975963 39.870752583073845 41.586944706393076
1940 39 1 0.0 11.026616535799505 40.943224269558165 41.421953581774474
1941 39 1 0.0 11.72742317535086 41.726580198011874 41.3010307000221
1942 39 1 0.0 12.85039215692084 42.09845810310273 41.27266485510437
1943 39 1 0.0 14.037311374493772 42.037973206678046 41.300519035854194
1944 39 1 0.0 14.920452433019518 41.527899119353805 41.34519815604322
1945 39 1 0.0 15.193428270002402 40.57679948748478 41.371247932922856
1946 39 1 0.0 15.033963673176292 39.396775464655896 41.37431529372016
1947 39 1 0.0 14.849413810158495 38.296472825460775 41.364799505763244
1948 39 1 0.0 15.048516192881234 37.58511801412595 41.35318870577797
1949 39 1 0.0 15.893399620955549 37.45141768597952 41.34765659405437
1950 39 1 0.0 17.0956326740932 37.63149010355638 41.34768545948619
1951 40 1 0.0 18.237570206109268 37.755233300583896 41.35071776024705
1952 40 1 0.0 18.904066257161052 37.45462830619697 41.35420287940832
1953 40 1 0.0 18.948253285378655 36.585258008765294 41.356333562222694
1954 40 1 0.0 18.72688677989993 35.42245969560289 41.356698023312866
1955 40 1 0.0 18.652226881349538 34.287832084080094 41.35503827297065
1956 40 1 0.0 19.119614556154833 33.49470024851809 41.35117829919665
1957 40 1 0.0 20.142034073859755 33.16941306745013 41.34679470558531
1958 40 1 0.0 21.35384451526397 33.25316796790112 41.34539863121751
1959 40 1 0.0 22.37323211109867 33.679253693707324 41.3505795767524
1960 40 1 0.0 22.863007396116316 34.38178342572405 41.36470740559549
1961 40 1 0.0 22.88077573148249 35.30216420578169 41.379361751738145
1962 40 1 0.0 22.690164126392563 36.38560933951801 41.38049142349276
1963 40 1 0.0 22.556585870252125 37.577365134218105 41.35399640793091
1964 40 1 0.0 22.66218508233246 38.80918888622673 41.296481774717165
1965 40 1 0.0 22.842225997549924 39.956645827685044 41.24914746345231
1966 40 1 0.0 22.841660266103997 40.88067119692943 41.26480399754642
1967 40 1 0.0 22.406592262125567 41.44284124202641 41.39576934482854
1968 40 1 0.0 21.458997887906172 41.60251838244748 41.61922187993457
1969 40 1 0.0 20.28397313902224 41.52096311664508 41.757200050219005
1970 40 1 0.0 19.211508161870153 41.384397499800336 41.6125616643926
1971 40 1 0.0 18.56220669466882 41.37272216331144 40.99691044069673
1972 40 1 0.0 18.4060012730998 41.49701928624532 39.955416294155654
1973 40 1 0.0 18.541155914867655 41.58541162397982 38.78637986197639
1974 40 1 0.0 18.752340246262936 41.45686657580998 37.800768534738964
1975 40 1 0.0 18.843466813151778 40.94793718552084 37.27917236900349
1976 40 1 0.0 18.80996130697845 40.07019578542928 37.199854179897024
1977 40 1 0.0 18.757063011694868 38.93557072661812 37.367722413609656
1978 40 1 0.0 18.79131245221996 37.657179533203745 37.58563134615551
1979 40 1 0.0 18.97362924853045 36.353923454149616 37.69236743127002
1980 40 1 0.0 19.15406873386592 35.17143668061526 37.69279916414931
1981 40 1 0.0 19.121805076159337 34.263071793145606 37.639746584450535
1982 40 1 0.0 18.666635260993182 33.78163485954045 37.585953831843916
1983 40 1 0.0 17.723882713457826 33.75325892252081 37.56552213197544
1984 40 1 0.0 16.55978665367805 33.91603242655578 37.57016017524527
1985 40 1 0.0 15.486342637077048 33.96821536000357 37.5857149582752
1986 40 1 0.0 14.808712315803362 33.61498643807973 37.59827889652277
1987 40 1 0.0 14.613571138663673 32.78272246767251 37.60179067243247
1988 40 1 0.0 14.728400337864196 31.660211635460005 37.59949713982886
1989 40 1 0.0 14.965631064722016 30.45147901320209 37.59518563038378
1990 40 1 0.0 15.148043365237292 29.345437710673302 37.59239725042625
1991 40 1 0.0 15.214762891131397 28.361107295911626 37.59190496171271
1992 40 1 0.0 15.178138285777228 27.410583544592537 37.59273957316382
1993 40 1 0.0 15.051658564960434 26.404297004840735 37.59390476147053
1994 40 1 0.0 14.864265369688214 25.284043315084016 37.594557835170306
1995 40 1 0.0 14.724195138286312 24.152567366245396 37.59464446115112
1996 40 1 0.0 14.76504932966185 23.16409890374099 37.59436248836668
1997 40 1 0.0 15.12026985686625 22.47271969680061 37.59390988271739
1998 40 1 0.0 15.857419152295712 22.16659578381742 37.593486281833506
1999 40 1 0.0 16.878834665570036 22.16857730537085 37.59329551602451
2000 40 1 0.0 18.06136706226488 22.376013593893198 37.59354206234174
2001 41 1 0.0 19.28247866729497 22.685552219455094 37.59441738080376
2002 41 1 0.0 20.443410062391084 22.966559740309126 37.59560689428068
2003 41 1 0.0 21.476290625917528 23.052963715432547 37.59613866548827
2004 41 1 0.0 22.315314086510288 22.776323255831667 37.59499682465678
2005 41 1 0.0 22.89587846218104 21.99106388079135 37.59137984245701
2006 41 1 0.0 23.16875036708612 20.8434218663274 37.587221505285605
2007 41 1 0.0 23.09530280702638 19.681022030547158 37.58634333408456
2008 41 1 0.0 22.637119378362012 18.85548777347091 37.5926043308816
2009 41 1 0.0 21.785345400176336 18.63360550088055 37.60776816068811
2010 41 1 0.0 20.69971184284162 18.798350168842326 37.621649125520776
2011 41 1 0.0 19.599621233852986 18.96144975992 37.6198320031688
2012 41 1 0.0 18.704478833365997 18.734669068788516 37.587918372071
2013 41 1 0.0 18.184398381395713 17.90426745928244 37.52757646363865
2014 41 1 0.0 18.072941752455602 16.73990506824989 37.484983816959634
2015 41 1 0.0 18.38021945353512 15.594261104794858 37.51396198337077
2016 41 1 0.0 19.114146126415278 14.81574263423916 37.6662613693902
2017 41 1 0.0 20.176856867162723 14.546958375661788 37.89386088501562
2018 41 1 0.0 21.319938460173347 14.637619273229012 38.00674194675582
2019 41 1 0.0 22.28347699156477 14.915061201611033 37.8040384876046
2020 41 1 0.0 22.82393599041141 15.209816410552925 37.104457884436414
2021 41 1 0.0 22.936385065609926 15.398985745898699 36.01187673896618
2022 41 1 0.0 22.7963298162366 15.394885630373672 34.845819097817476
2023 41 1 0.0 22.58373374378795 15.11070253266959 33.931136854155525
2024 41 1 0.0 22.45668840912263 14.47812206422618 33.534338658354606
2025 41 1 0.0 22.434462140039336 13.54624560894013 33.5516231948997
2026 41 1 0.0 22.482031275040107 12.410094356213147 33.734365661159245
2027 41 1 0.0 22.564246042096546 11.164800026883093 33.83366531074079
2028 41 1 0.0 22.64504977708417 9.913229025335466 33.70710389616113
2029 41 1 0.0 22.685606627103716 8.781950846747923 33.53858089497949
2030 41 1 0.0 22.646550164980226 7.902060137788716 33.57429302495334
2031 41 1 0.0 22.48991388937775 7.402685397838627 34.0570743000656
2032 41 1 0.0 22.263262734787624 7.292829191103093 35.02430722102754
2033 41 1 0.0 22.147626118774728 7.39404784419347 36.19278479124645
2034 41 1 0.0 22.335619018619326 7.511626166916447 37.251470821826636
2035 41 1 0.0 23.00427966867022 7.463889713238516 37.903672164433466
2036 41 1 0.0 24.0698176945646 7.287527989763249 38.09286624623622
2037 41 1 0.0 25.232441614579823 7.200065173837364 37.96142397667908
2038 41 1 0.0 26.185848770292374 7.424476556042317 37.65771174654397
2039 41 1 0.0 26.667646723841283 8.139283954031088 37.32955707613736
2040 41 1 0.0 26.726226997314466 9.208380240917599 37.12097351493997
2041 41 1 0.0 26.544074864085196 10.359905545550443 37.17432900094298
2042 41 1 0.0 26.304199263325973 11.321472695393238 37.631972984751926
2043 41 1 0.0 26.15363547855236 11.877285706316016 38.55112281643755
2044 41 1 0.0 26.117306788448996 12.003646487659601 39.70001627805173
2045 41 1 0.0 26.194250637481055 11.717578696239032 40.78563200516752
2046 41 1 0.0 26.382732335194166 11.036917447945024 41.51699882252947
2047 41 1 0.0 26.619418834717088 10.044233365490756 41.766702829697145
2048 41 1 0.0 26.735498535008468 8.932947556249657 41.687399041620644
2049 41 1 0.0 26.55180764883732 7.907360541572603 41.459229819667044
2050 41 1 0.0 25.901404475789608 7.166880166613453 41.25760138279302
2051 42 1 0.0 24.854420211029698 6.816010604984967 41.16605257804692
2052 42 1 0.0 23.695904010446714 6.873221296118478 41.18484006967302
2053 42 1 0.0 22.718682754975998 7.353868144844128 41.311206600151834
2054 42 1 0.0 22.18128676917627 8.251165756413451 41.52929067448765
2055 42 1 0.0 22.07091058321997 9.383158755631445 41.719557162164065
2056 42 1 0.0 22.24577592204534 10.484629019671111 41.71319221648108
2057 42 1 0.0 22.56332068948184 11.289853054417968 41.34108309672107
2058 42 1 0.0 22.880131813896618 11.615188056311592 40.50909043229021
2059 42 1 0.0 23.049593346635074 11.585924169103777 39.40525747125694
2060 42 1 0.0 22.924335941107582 11.400020403604772 38.284003972776084
2061 42 1 0.0 22.358347558023834 11.254542240119168 37.39899313367435
2062 42 1 0.0 21.352352472621586 11.249957009506673 36.92209741141436
2063 42 1 0.0 20.18310108748594 11.305020970041062 36.871332454990565
2064 42 1 0.0 19.15784205492044 11.318413042675488 37.24771420612187
2065 42 1 0.0 18.572384808249563 11.195359013186458 38.04675422344406
2066 42 1 0.0 18.463115422002474 10.989557186792407 39.13913338000966
2067 42 1 0.0 18.60902401178297 10.902018071796462 40.27167741813789
2068 42 1 0.0 18.77806696201551 11.140066973575683 41.18590281179833
2069 42 1 0.0 18.767632968568808 11.875937239740729 41.65369603710113
2070 42 1 0.0 18.636157732598054 12.970617533572332 41.716307331273185
2071 42 1 0.0 18.578584022955045 14.122340009624788 41.555843008911324
2072 42 1 0.0 18.79104682611635 15.027915348958594 41.35563958536939
2073 42 1 0.0 19.41798797180014 15.457428602821766 41.26177570267026
2074 42 1 0.0 20.38802124536139 15.48689823823621 41.26477181211278
2075 42 1 0.0 21.573441297348126 15.272174355482381 41.3145563152492
2076 42 1 0.0 22.846576966454315 14.969007234027375 41.36118827750384
2077 42 1 0.0 24.085039836805695 14.717759220571727 41.37484186187653
2078 42 1 0.0 25.177371471651814 14.626955090604078 41.36730928762028
2079 42 1 0.0 26.013468088224716 14.801173693258402 41.35554088683253
2080 42 1 0.0 26.487567227311633 15.340643643961021 41.355892923264946
2081 42 1 0.0 26.61028219036943 16.22897894728599 41.36879675786615
2082 42 1 0.0 26.51859801630929 17.323162504379514 41.37739099556388
2083 42 1 0.0 26.355844519484766 18.47381941889589 41.36394601983114
2084 42 1 0.0 26.254519857240787 19.54453699315439 41.31500504144157
2085 42 1 0.0 26.239040300812704 20.528243670777435 41.25974696701012
2086 42 1 0.0 26.27172172596159 21.492183179059882 41.25184781056143
2087 42 1 0.0 26.31413948156322 22.504485430723413 41.34527570610604
2088 42 1 0.0 26.334866157813032 23.60585052476119 41.55784470966699
2089 42 1 0.0 26.334889610950526 24.709907809140656 41.73988229176767
2090 42 1 0.0 26.32457768183682 25.693516250588402 41.69325043774362
2091 42 1 0.0 26.314283211243875 26.43367705085249 41.22041470772451
2092 42 1 0.0 26.31063027075525 26.841514219322995 40.266095807366455
2093 42 1 0.0 26.311746055923837 26.90590859390179 39.09917618986255
2094 42 1 0.0 26.31458005730043 26.626518456524707 38.03346857573943
2095 42 1 0.0 26.31614822772903 26.004701198940282 37.37569086341456
2096 42 1 0.0 26.31560005600354 25.096358100754934 37.204806877510656
2097 42 1 0.0 26.31462107198415 24.022224380525145 37.32905911536963
2098 42 1 0.0 26.315044523324325 22.906811665053066 37.54092126144319
2099 42 1 0.0 26.31838991683643 21.86450352064733 37.64820733158068
2100 42 1 0.0 26.322640044915882 20.895512666650962 37.63165868835853
2101 43 1 0.0 26.323547355971847 19.928052720438618 37.58106917141625
2102 43 1 0.0 26.316829368839674 18.88920971639283 37.58794049889691
2103 43 1 0.0 26.300716061210256 17.736874708623102 37.7116958809949
2104 43 1 0.0 26.286359498144378 16.58737523885621 37.84677223111889
2105 43 1 0.0 26.289054459693318 15.60783228439175 37.834713212124605
2106 43 1 0.0 26.324050253848206 14.965168317707915 37.51721941527446
2107 43 1 0.0 26.388104729041 14.739736030886784 36.806706355435026
2108 43 1 0.0 26.43149971328797 14.794305568341468 35.79332285308903
2109 43 1 0.0 26.39733097973302 14.958004776525335 34.59469859466571
2110 43 1 0.0 26.23154986553275 15.062744954096685 33.32841153751752
2111 43 1 0.0 25.99161250085792 15.049126352450486 32.110019708729936
2112 43 1 0.0 25.88011055359424 14.99921964028532 31.052451977867413
2113 43 1 0.0 26.10936425416096 15.004578372593697 30.26846097975691
2114 43 1 0.0 26.866285844171966 15.144186068088864 29.859556595157642
2115 43 1 0.0 28.012628037717207 15.336160814973642 29.783369209716795
2116 43 1 0.0 29.185291747834565 15.387380283392746 29.898034773668858
2117 43 1 0.0 30.016691103225284 15.102502406922852 30.05970388479754
2118 43 1 0.0 30.2279691050992 14.338822110881065 30.145302631188436
2119 43 1 0.0 30.047444987547088 13.254508550435041 30.150510271228754
2120 43 1 0.0 29.883347608141104 12.11445940211847 30.11313114088436
2121 43 1 0.0 30.14386076407934 11.183610996916928 30.071005197303883
2122 43 1 0.0 31.04329542934499 10.66105764421366 30.05129902437524
2123 43 1 0.0 32.257706815851186 10.56309419276998 30.05154635408378
2124 43 1 0.0 33.37049601103494 10.874548807342755 30.064179986586048
2125 43 1 0.0 33.97173152345883 11.578720822802937 30.081632575339718
2126 43 1 0.0 33.9742440848392 12.584900669643787 30.09632967227894
2127 43 1 0.0 33.75114442705818 13.696837249406528 30.10068670210168
2128 43 1 0.0 33.710804945597964 14.71019401588707 30.087118313666856
2129 43 1 0.0 34.23282522184119 15.427581049119828 30.049726690297458
2130 43 1 0.0 35.27636960210607 15.753114191695559 30.00727267215184
2131 43 1 0.0 36.48203532376535 15.667821006777931 29.997201159056488
2132 43 1 0.0 37.48251336449922 15.15463786738292 30.057420755419205
2133 43 1 0.0 37.9691675676943 14.225873999161085 30.20738838438312
2134 43 1 0.0 38.0066387350488 13.080708809673444 30.349171314179177
2135 43 1 0.0 37.80586602422689 11.991561695674411 30.33882831147183
2136 43 1 0.0 37.578100717183055 11.230965942566241 30.03234028720781
2137 43 1 0.0 37.47786934431114 10.964939683323712 29.340961149979634
2138 43 1 0.0 37.485479751030645 11.032361146818438 28.34570472269113
2139 43 1 0.0 37.547903596170194 11.2095113905219 27.160067843371184
2140 43 1 0.0 37.61243535153741 11.275196051012351 25.897555475566094
2141 43 1 0.0 37.64620052336253 11.163310610752497 24.6721717491938
2142 43 1 0.0 37.64733150629954 11.050241863778474 23.59870126763204
2143 43 1 0.0 37.616659618280494 11.133483702542957 22.79199656877522
2144 43 1 0.0 37.55653599847013 11.599988998819402 22.358732349384276
2145 43 1 0.0 37.49484003329955 12.459654417662225 22.268221130913357
2146 43 1 0.0 37.480633617629294 13.575461148411218 22.375796774005366
2147 43 1 0.0 37.56361982090247 14.805943387307721 22.53334311257466
2148 43 1 0.0 37.771187864439746 16.017245882173096 22.610725725600805
2149 43 1 0.0 37.972417489399405 17.12950776396112 22.605384812905477
2150 43 1 0.0 37.96793780654117 18.086214520138228 22.56992191531474
2151 44 1 0.0 37.558119068377586 18.830944617573092 22.557155268758525
2152 44 1 0.0 36.64552074267945 19.307038961193523 22.597271034335915
2153 44 1 0.0 35.48035838817793 19.457030250725932 22.643459198489104
2154 44 1 0.0 34.38671249472456 19.22327947016019 22.632550715601237
2155 44 1 0.0 33.68620747309084 18.54962946509626 22.502507550804257
2156 44 1 0.0 33.50331579416275 17.49887360416862 22.282079040453567
2157 44 1 0.0 33.62422841665392 16.337905519130576 22.155791274819073
2158 44 1 0.0 33.8018486239075 15.353702774961011 22.323499133442535
2159 44 1 0.0 33.801627612804225 14.819636370728182 22.97187260331048
2160 44 1 0.0 33.63321255560825 14.744278809386307 24.030989395067444
2161 44 1 0.0 33.528061158539906 14.895678171970143 25.19785675316919
2162 44 1 0.0 33.725688974852716 15.03314486161928 26.161015028588317
2163 44 1 0.0 34.424321567718145 14.954607929160623 26.648894234080466
2164 44 1 0.0 35.494718647875025 14.76427618862142 26.70628440267796
2165 44 1 0.0 36.651661612679 14.712245423715785 26.528663958332917
2166 44 1 0.0 37.60897621485126 15.049504899419482 26.312434664567068
2167 44 1 0.0 38.140855600013154 15.92292678549207 26.21059009993799
2168 44 1 0.0 38.24921435373391 17.086626604337706 26.212376927483316
2169 44 1 0.0 37.98965396705164 18.202124780577893 26.268437341656416
2170 44 1 0.0 37.41780010544177 18.93269350631972 26.329562679058277
2171 44 1 0.0 36.59191050796039 19.132334577580885 26.362782631536
2172 44 1 0.0 35.57520430633942 19.01457030959844 26.36573578326205
2173 44 1 0.0 34.431450209260554 18.832747357901052 26.33945128689873
2174 44 1 0.0 33.22548005538697 18.829580972868307 26.285891901444195
2175 44 1 0.0 32.046320619194475 19.005834649668436 26.228267595317522
2176 44 1 0.0 31.007051659133285 19.121739660672382 26.210910888852116
2177 44 1 0.0 30.221787672960975 18.927179782666393 26.279062976945397
2178 44 1 0.0 29.790282606178046 18.21126853280237 26.46239256060434
2179 44 1 0.0 29.684599325970712 17.111942214412895 26.65210092667577
2180 44 1 0.0 29.80989059023072 15.94992022778126 26.66683245405869
2181 44 1 0.0 30.07072052276852 15.04752998671134 26.324593210501163
2182 44 1 0.0 30.361822751449964 14.645567280048715 25.513453894448876
2183 44 1 0.0 30.536794130344077 14.64364999147467 24.414678231470912
2184 44 1 0.0 30.43847287791161 14.8521666261685 23.28620968282467
2185 44 1 0.0 29.910579018980698 15.081893604238308 22.385493242729787
2186 44 1 0.0 28.933603657410888 15.203816844448482 21.892624418743157
2187 44 1 0.0 27.771607128209173 15.213755390833153 21.827329036332426
2188 44 1 0.0 26.72388175013031 15.123038145893176 22.189407832443003
2189 44 1 0.0 26.081371289796934 14.945260794054345 22.97428119011378
2190 44 1 0.0 25.910378228346342 14.755013165494884 24.059503745485483
2191 44 1 0.0 26.032789071152113 14.693248419900863 25.194388919045647
2192 44 1 0.0 26.25817800676214 14.904262732225652 26.12179005242475
2193 44 1 0.0 26.40966647549246 15.514054162694483 26.61048226536725
2194 44 1 0.0 26.445907485032755 16.465559866516095 26.688571446472295
2195 44 1 0.0 26.403584765620263 17.59632181336998 26.533470156317502
2196 44 1 0.0 26.320318420786155 18.742617224464237 26.3243826443906
2197 44 1 0.0 26.23406122348194 19.776422021885587 26.20988514994291
2198 44 1 0.0 26.184310558454637 20.735464165873626 26.196345512581
2199 44 1 0.0 26.211011775672514 21.705542691022988 26.24888857647558
2200 44 1 0.0 26.353831468925538 22.77215007773626 26.33262917933725
2201 45 1 0.0 26.586599140410872 23.947188538876865 26.4113488494196
2202 45 1 0.0 26.732801398968082 25.074512558022803 26.4457844239567
2203 45 1 0.0 26.595036551756472 25.974628447199642 26.396249717696502
2204 45 1 0.0 25.982973537740275 26.473280093482686 26.226217151372396
2205 45 1 0.0 24.93418716850369 26.56503280544879 26.00096968729803
2206 45 1 0.0 23.757687935151523 26.44551804559078 25.907046546866283
2207 45 1 0.0 22.778346388196695 26.3221156255943 26.1380719871443
2208 45 1 0.0 22.291512495269338 26.380086011525677 26.86191920827973
2209 45 1 0.0 22.258858060796204 26.554669449771094 27.955391094915278
2210 45 1 0.0 22.43120478227523 26.62311925239796 29.111364180151742
2211 45 1 0.0 22.55605379753899 26.360200684161565 30.019818444494657
2212 45 1 0.0 22.446552748260682 25.603915144242194 30.435620168106592
2213 45 1 0.0 22.2542543152578 24.51824371533152 30.448121848856047
2214 45 1 0.0 22.239441531620134 23.371905535769127 30.254147210139614
2215 45 1 0.0 22.662044657260992 22.43349492081559 30.05040902427044
2216 45 1 0.0 23.622374275634122 21.902831305733752 29.969821340353313
2217 45 1 0.0 24.81869411461858 21.806505330574108 29.98460325669275
2218 45 1 0.0 25.88695756136878 22.144260154542714 30.042068920843057
2219 45 1 0.0 26.47060959049346 22.91301783081159 30.09023442473633
2220 45 1 0.0 26.50693496528581 23.99904920464672 30.104647967334618
2221 45 1 0.0 26.316440242497308 25.144315344436954 30.09676474127483
2222 45 1 0.0 26.245396151832736 26.081075307586364 30.08045398247392
2223 45 1 0.0 26.61746959625601 26.56295441798859 30.068857539016683
2224 45 1 0.0 27.466237857297415 26.617785204742688 30.065782217479647
2225 45 1 0.0 28.62427715566096 26.46339644314129 30.06856663975654
2226 45 1 0.0 29.92013283241906 26.321427097318487 30.07441971462518
2227 45 1 0.0 31.192182256025465 26.36611179335726 30.080560183854743
2228 45 1 0.0 32.33513287569327 26.500094153054707 30.08426312481797
2229 45 1 0.0 33.26371768419942 26.52946623259653 30.082823642394537
2230 45 1 0.0 33.89274680328578 26.260303250155246 30.07354187114995
2231 45 1 0.0 34.17757630813756 25.57459705007071 30.057544480605586
2232 45 1 0.0 34.18637702786372 24.565569322634225 30.04660506217674
2233 45 1 0.0 34.006784467932775 23.36288664185766 30.054334191198567
2234 45 1 0.0 33.72701129117667 22.095978490138364 30.093817560317376
2235 45 1 0.0 33.46334728403972 20.882740492741632 30.152606758195912
2236 45 1 0.0 33.37220190586558 19.824587435167132 30.181767445887917
2237 45 1 0.0 33.61306687581903 19.021667935305626 30.12956219308099
2238 45 1 0.0 34.32842308185586 18.566531822274463 29.953310546618493
2239 45 1 0.0 35.411449830163086 18.440365168911796 29.74306623330424
2240 45 1 0.0 36.56605419082907 18.53980557860153 29.689656087234106
2241 45 1 0.0 37.49142460524873 18.75938282928874 29.986419254322538
2242 45 1 0.0 37.93681063158352 18.993870607271838 30.77712093449951
2243 45 1 0.0 37.97069929588103 19.139597991339667 31.889395525761394
2244 45 1 0.0 37.786965768389415 19.093504977850078 33.026709499194006
2245 45 1 0.0 37.579755089345824 18.752555249052392 33.89228458688793
2246 45 1 0.0 37.49068194641209 18.055685922216867 34.28384346693551
2247 45 1 0.0 37.49966758130661 17.071032359321695 34.28999176138288
2248 45 1 0.0 37.55562290330909 15.891508171678199 34.0551219965637
2249 45 1 0.0 37.60782356083434 14.610403667186608 33.723624654178046
2250 45 1 0.0 37.62807495134819 13.34427750865431 33.43976391995912
2251 46 1 0.0 37.62347983272521 12.246142893178467 33.34760611173509
2252 46 1 0.0 37.60422169963446 11.472194752233758 33.591200277517125
2253 46 1 0.0 37.58048936268917 11.164716972828524 34.30097096033057
2254 46 1 0.0 37.56256120206095 11.231603072951906 35.377780303412614
2255 46 1 0.0 37.56079006638289 11.385873552597497 36.531631423443216
2256 46 1 0.0 37.58553106769902 11.334625898076371 37.46672642556623
2257 46 1 0.0 37.641610021569385 10.82589571686182 37.93058138406533
2258 46 1 0.0 37.694530137180855 9.898857575749277 37.97874761132575
2259 46 1 0.0 37.69275605502916 8.718837169717704 37.80024874132385
2260 46 1 0.0 37.584690111881265 7.451665148543564 37.584639897305706
2261 46 1 0.0 37.366956732395536 6.241467360032035 37.47723566298697
2262 46 1 0.0 37.20060312184168 5.158362821325102 37.4725037209351
2263 46 1 0.0 37.2816899395563 4.256710964693533 37.53278925204945
2264 46 1 0.0 37.80412752168819 3.5908164312129385 37.620431946129756
2265 46 1 0.0 38.788144996270134 3.210558387326382 37.69732797787029
2266 46 1 0.0 39.95535593788086 3.158207142012327 37.72461097252132
2267 46 1 0.0 40.99791247554122 3.475282313478627 37.663339322115434
2268 46 1 0.0 41.62064135894118 4.196576955726439 37.48053804896225
2269 46 1 0.0 41.77584602868747 5.225545450402388 37.259732854610924
2270 46 1 0.0 41.64106228313144 6.34610882541484 37.190478507698685
2271 46 1 0.0 41.40203929980414 7.33782917566176 37.466196259195826
2272 46 1 0.0 41.22916775041236 7.996800372477441 38.24088468682196
2273 46 1 0.0 41.170732735785684 8.250549775733601 39.35511812782112
2274 46 1 0.0 41.21673653882569 8.089339918046608 40.49986883485718
2275 46 1 0.0 41.35682099562817 7.503821450319973 41.36518479647937
2276 46 1 0.0 41.557019190792495 6.531733507617432 41.73042461999359
2277 46 1 0.0 41.69410502915404 5.3888457944343395 41.712609519543676
2278 46 1 0.0 41.62376139567372 4.332994795267718 41.50854688667804
2279 46 1 0.0 41.20257249022288 3.6207544575291406 41.314312581185526
2280 46 1 0.0 40.38595742575387 3.370253506505576 41.2457653522232
2281 46 1 0.0 39.31602021950385 3.4381175990292716 41.2672453898329
2282 46 1 0.0 38.155596523730026 3.651932089009973 41.326266523734674
2283 46 1 0.0 37.06237015443198 3.843054619058034 41.37172211143464
2284 46 1 0.0 36.07636520768297 3.928995886715349 41.38401172392503
2285 46 1 0.0 35.12040671729712 3.913082340699989 41.37491779353912
2286 46 1 0.0 34.1122600128116 3.8023452573540752 41.35757760984825
2287 46 1 0.0 32.98665751187232 3.613193760462829 41.344226584566854
2288 46 1 0.0 31.8295806343904 3.445633526146562 41.33906055743699
2289 46 1 0.0 30.80642866581081 3.443565130016316 41.34205394765388
2290 46 1 0.0 30.083304635732816 3.7512781127938526 41.353143767212174
2291 46 1 0.0 29.774910385147 4.464807203916855 41.370229608982974
2292 46 1 0.0 29.78036799739983 5.4778034758755165 41.38266600427828
2293 46 1 0.0 29.942291060316837 6.630868512205263 41.37756762396065
2294 46 1 0.0 30.103667923067178 7.765039636620736 41.34217248293154
2295 46 1 0.0 30.166132066127076 8.789534242728635 41.2830106773345
2296 46 1 0.0 30.15316043951031 9.755223363298393 41.246694302632825
2297 46 1 0.0 30.103405687724745 10.730621096910893 41.28482769703119
2298 46 1 0.0 30.054911788100416 11.781133925613991 41.44485631912436
2299 46 1 0.0 30.02928282430581 12.888232664759279 41.661895702332515
2300 46 1 0.0 30.030200666643744 13.941884318391672 41.74860311314432
2301 47 1 0.0 30.0604413614901 14.827431107889979 41.51144653629086
2302 47 1 0.0 30.11967011492466 15.434951666899067 40.78598519988355
2303 47 1 0.0 30.176348937411763 15.702033078338589 39.69957722605994
2304 47 1 0.0 30.180938379240377 15.593670562043334 38.547922666891665
2305 47 1 0.0 30.08368161039911 15.075190310390227 37.62875442172777
2306 47 1 0.0 29.8699336168542 14.15302750539719 37.17621358674773
2307 47 1 0.0 29.68844620850959 13.024922681870997 37.12850957881369
2308 47 1 0.0 29.735465417389253 11.944222711994243 37.337833956110394
2309 47 1 0.0 30.20665427879162 11.163836549327637 37.65638801498113
2310 47 1 0.0 31.157363685751264 10.830752845359285 37.94096031111351
2311 47 1 0.0 32.32185488112057 10.84957272765787 38.058836863025306
2312 47 1 0.0 33.38967042375604 11.09113961444016 37.878765688158175
2313 47 1 0.0 34.05717370856389 11.425861092769189 37.274602974002114
2314 47 1 0.0 34.24148324078634 11.710039154203423 36.28552989667305
2315 47 1 0.0 34.12315488175614 11.783142926136684 35.148017642169
2316 47 1 0.0 33.89818547533435 11.483654903066881 34.11010125227798
2317 47 1 0.0 33.75010045320507 10.676146024288997 33.406600073795055
2318 47 1 0.0 33.72107602626438 9.520869970646478 33.12254863660212
2319 47 1 0.0 33.76379038048764 8.365297736415785 33.24814228291572
2320 47 1 0.0 33.82950440509655 7.559865101866345 33.77207447518542
2321 47 1 0.0 33.875569759250226 7.360377484049037 34.65858525185506
2322 47 1 0.0 33.890807550781894 7.533709444160873 35.74557007103208
2323 47 1 0.0 33.874172503256645 7.689292765675253 36.830239616197666
2324 47 1 0.0 33.82465860367524 7.436963650632448 37.70989704966324
2325 47 1 0.0 33.755024462963576 6.578759520473301 38.22669812902861
2326 47 1 0.0 33.712773299093676 5.4018713234010605 38.33601534826875
2327 47 1 0.0 33.750805825836586 4.268857506207955 38.01080916423691
2328 47 1 0.0 33.919259757804596 3.5362718771788613 37.227584787227535
2329 47 1 0.0 34.15941577180063 3.324096633944217 36.10250413286185
2330 47 1 0.0 34.27030346019572 3.443169348869028 34.934228275113625
2331 47 1 0.0 34.04136036865393 3.683481850354215 34.033724278155624
2332 47 1 0.0 33.287045328954264 3.8464546651279607 33.68245272379042
2333 47 1 0.0 32.1438388130057 3.880594611293408 33.78212849233187
2334 47 1 0.0 30.971793252579282 3.836527018051713 33.97081806240171
2335 47 1 0.0 30.135466927724227 3.7669353014844367 33.881274367499
2336 47 1 0.0 29.912664370136834 3.7184274309476857 33.22311201387291
2337 47 1 0.0 30.08300675925137 3.7027231263137415 32.14732372131267
2338 47 1 0.0 30.248622250803585 3.71911210379396 30.962156633327613
2339 47 1 0.0 30.011655640425897 3.7668540955559635 29.975952307174047
2340 47 1 0.0 29.155971973934356 3.833725643482791 29.420888763438228
2341 47 1 0.0 27.972156991888543 3.8754828065835993 29.316764608868134
2342 47 1 0.0 26.838426842462162 3.8423441396854767 29.646650337868643
2343 47 1 0.0 26.127861696760625 3.6865208737770994 30.391830040243462
2344 47 1 0.0 25.962457283785643 3.4576409485879025 31.446255172409835
2345 47 1 0.0 26.104716624651704 3.3448096690139355 32.578837803237235
2346 47 1 0.0 26.289445792524422 3.5478783084740613 33.5488564003221
2347 47 1 0.0 26.270705378773666 4.247380242094777 34.12924732758075
2348 47 1 0.0 26.085575416523817 5.339897788300215 34.293702436617686
2349 47 1 0.0 25.986432990794565 6.506007520426029 34.16863123116333
2350 47 1 0.0 26.231046837227307 7.420876613493146 33.88426769938354
2351 48 1 0.0 27.01678026949196 7.81764396058264 33.57229251345595
2352 48 1 0.0 28.15488834708104 7.800000602612684 33.373633473046525
2353 48 1 0.0 29.304646371522825 7.617494150858853 33.43285822799911
2354 48 1 0.0 30.125030287232896 7.519967710462947 33.894495818336665
2355 48 1 0.0 30.402858511874012 7.650418823239356 34.811521869037776
2356 48 1 0.0 30.31933184832215 7.822236200354559 35.954478058976925
2357 48 1 0.0 30.131460682722427 7.785449972495051 37.0396156104609
2358 48 1 0.0 30.093186036534522 7.293490646181336 37.785695918728166
2359 48 1 0.0 30.26781154075065 6.310985129173933 38.06738652452275
2360 48 1 0.0 30.41936805714615 5.13410773287973 38.0041047723362
2361 48 1 0.0 30.28569505687067 4.088048731576069 37.736687722633796
2362 48 1 0.0 29.62403877306333 3.4817572335663627 37.40610678031594
2363 48 1 0.0 28.519654815133613 3.3496772687474334 37.15560401420173
2364 48 1 0.0 27.331044712937583 3.4975783282916773 37.13031305383228
2365 48 1 0.0 26.425049372208164 3.7242508314467555 37.475425258561835
2366 48 1 0.0 26.104215264028372 3.851273472114144 38.29679660222869
2367 48 1 0.0 26.212750436394707 3.862676670017648 39.41987125216855
2368 48 1 0.0 26.395842780792034 3.8130307915019217 40.548332687964994
2369 48 1 0.0 26.297884498544324 3.757191286091336 41.385381124392026
2370 48 1 0.0 25.672400092102098 3.735815225116728 41.72928228095378
2371 48 1 0.0 24.645855550693977 3.7410390840933947 41.70317242702766
2372 48 1 0.0 23.42431410969261 3.7546435429357325 41.49952525365038
2373 48 1 0.0 22.212780732864864 3.758562744952743 41.30979487685516
2374 48 1 0.0 21.130251310282148 3.7472032879260797 41.242571333951396
2375 48 1 0.0 20.14754279742142 3.736459677088025 41.263684016498324
2376 48 1 0.0 19.220814523352253 3.7443519675714905 41.32484065823048
2377 48 1 0.0 18.30656181237634 3.7870622054419067 41.37900161572704
2378 48 1 0.0 17.36786212247037 3.8447659098710205 41.40366607888352
2379 48 1 0.0 16.37379518756372 3.8648040935826167 41.39871030504034
2380 48 1 0.0 15.293660456005457 3.7933158561306617 41.36482966822262
2381 48 1 0.0 14.112167902119069 3.5960630710072103 41.30621917165079
2382 48 1 0.0 12.9368477144894 3.39519898363981 41.25496548222419
2383 48 1 0.0 11.933976513724781 3.3876807726361116 41.25649619556666
2384 48 1 0.0 11.270196807444956 3.7709314866933252 41.35632185831284
2385 48 1 0.0 11.045728852181522 4.652960885347328 41.55981559675935
2386 48 1 0.0 11.109099449527363 5.802965464547588 41.72025804061472
2387 48 1 0.0 11.249228464519398 6.909902761657708 41.6549107351934
2388 48 1 0.0 11.256385465089776 7.664208713710817 41.18232507124688
2389 48 1 0.0 11.06990451449158 7.919597340165787 40.263506130508866
2390 48 1 0.0 10.911260885707595 7.838826578680698 39.12908763174945
2391 48 1 0.0 11.033341417533588 7.619061086104962 38.03972180002325
2392 48 1 0.0 11.675878716987688 7.452233863678217 37.250390753034075
2393 48 1 0.0 12.777123552255087 7.410373597437895 36.886123417812854
2394 48 1 0.0 13.974435607343278 7.445839611118274 36.942250174419556
2395 48 1 0.0 14.89213848555479 7.505806563480569 37.40848222436627
2396 48 1 0.0 15.207407445214429 7.542010259782712 38.26028046758994
2397 48 1 0.0 15.069742067719686 7.546948529302215 39.34575380261017
2398 48 1 0.0 14.877161311261508 7.534566652382191 40.446003272372046
2399 48 1 0.0 15.029902276789093 7.519001337128361 41.34153184577268
2400 48 1 0.0 15.805192698995377 7.51155819481391 41.85377424583243
2401 49 1 0.0 16.96318588910828 7.511642216401528 41.97622333885446
2402 49 1 0.0 18.128192072379665 7.515531924178098 41.747574205931166
2403 49 1 0.0 18.92571132078446 7.519514293140815 41.206571397795706
2404 49 1 0.0 19.16899242023404 7.521211540125535 40.39973084134257
2405 49 1 0.0 19.06217275761146 7.5210258254538935 39.38974829390007
2406 49 1 0.0 18.858195025140198 7.519706405756589 38.241339683152695
2407 49 1 0.0 18.802163933646398 7.518002119082931 37.02027643972446
2408 49 1 0.0 18.92668037321125 7.516650454878353 35.82094685311631
2409 49 1 0.0 19.03222551042266 7.516376506412158 34.76899765018698
2410 49 1 0.0 18.90750975996437 7.517904738345649 33.991660667865375
2411 49 1 0.0 18.36359852900435 7.521701566969528 33.599870866001446
2412 49 1 0.0 17.436374067105245 7.525638300573204 33.5406708458021
2413 49 1 0.0 16.291681936781323 7.5260860536451055 33.666359444305265
2414 49 1 0.0 15.09694696355182 7.519397710909308 33.82808420963307
2415 49 1 0.0 13.990967858679483 7.504419520662226 33.90436520747623
2416 49 1 0.0 12.979026291878851 7.491627200876466 33.901392557966744
2417 49 1 0.0 12.027507848189419 7.494884357931849 33.862549125999536
2418 49 1 0.0 11.102794402613458 7.52797964553844 33.83114395056905
2419 49 1 0.0 10.171452939327207 7.586547727237074 33.831665767619114
2420 49 1 0.0 9.200474942884256 7.62459175002145 33.84544377898734
2421 49 1 0.0 8.156911160717998 7.5903028433979305 33.84778184831137
2422 49 1 0.0 7.01046997255486 7.435156984094057 33.815056906538715
2423 49 1 0.0 5.817226618662114 7.217380033927805 33.75851807327753
2424 49 1 0.0 4.736525102668327 7.122838578867845 33.731111107056016
2425 49 1 0.0 3.933781328076118 7.344904104446333 33.78823340626347
2426 49 1 0.0 3.555653108152584 8.052048781973616 33.972468967567266
2427 49 1 0.0 3.535620275148236 9.129774316805275 34.18078274674755
2428 49 1 0.0 3.6719130014420363 10.284053275818666 34.217752457445556
2429 49 1 0.0 3.7606077491100742 11.217999410901333 33.88648464246634
2430 49 1 0.0 3.652478505679434 11.690961088683084 33.05431992185928
2431 49 1 0.0 3.481553585804647 11.75350090950538 31.92123883272051
2432 49 1 0.0 3.4732753447833 11.550164397348063 30.79457405466934
2433 49 1 0.0 3.852817832497178 11.225542606391565 29.981403016173683
2434 49 1 0.0 4.718323969952008 10.923899990850837 29.663878449796425
2435 49 1 0.0 5.846595537679572 10.788674829449622 29.708140433483273
2436 49 1 0.0 6.964397198447425 10.963176754326124 29.931121644000918
2437 49 1 0.0 7.8015292472841855 11.586165205064429 30.151664728660947
2438 49 1 0.0 8.207926506320401 12.616326679710525 30.264199029213014
2439 49 1 0.0 8.190822995304565 13.776567589600091 30.262123989279544
2440 49 1 0.0 7.768090991453127 14.773848369828334 30.14553247140223
2441 49 1 0.0 6.965574217935373 15.335605254677057 29.922433685273308
2442 49 1 0.0 5.9119982859687426 15.453541324374264 29.703007606854428
2443 49 1 0.0 4.807659820304146 15.303200045109222 29.6685105252852
2444 49 1 0.0 3.854305049309175 15.063848397319433 30.00163831363216
2445 49 1 0.0 3.233594911856376 14.89449983672402 30.82962860445926
2446 49 1 0.0 3.0115836395127666 14.83759278513289 31.96051304731913
2447 49 1 0.0 3.2130470551924972 14.893941506029842 33.08834794103816
2448 49 1 0.0 3.8626134214760057 15.064254339495028 33.90719503023884
2449 49 1 0.0 4.908894207340718 15.306466271771216 34.22750032819339
2450 49 1 0.0 6.088067825760741 15.458979830015247 34.18495200439001
2451 50 1 0.0 7.099490222939949 15.33947816707704 33.97161466386012
2452 50 1 0.0 7.647506492291723 14.769500096988672 33.77773272173101
2453 50 1 0.0 7.6815746534645735 13.760010072168992 33.70412607725357
2454 50 1 0.0 7.502795874131687 12.593725768428225 33.723324707330576
2455 50 1 0.0 7.439440266071531 11.574361284165006 33.79794654664479
2456 50 1 0.0 7.801763019362385 10.987779131180224 33.890420466098035
2457 50 1 0.0 8.634435576298781 10.856666030030837 33.960388076765554
2458 50 1 0.0 9.779695532906791 11.003110253099104 33.96536647821927
2459 50 1 0.0 11.074688142913175 11.24415390098376 33.86281932669654
2460 50 1 0.0 12.362716593308717 11.415579077277252 33.63536639273493
2461 50 1 0.0 13.526537829527719 11.473234719621411 33.42680218105165
2462 50 1 0.0 14.464471992765867 11.420332139147378 33.44449926950745
2463 50 1 0.0 15.074903666976462 11.260215931770277 33.89592365179887
2464 50 1 0.0 15.308751236009993 11.031710162116848 34.86688579598534
2465 50 1 0.0 15.279353895442343 10.883332161224224 36.06706900507579
2466 50 1 0.0 15.131343368851873 10.984733125761593 37.13369068488262
2467 50 1 0.0 15.008196292774329 11.503058319732196 37.70841185849517
2468 50 1 0.0 14.981250999428276 12.44895074664124 37.7104094447416
2469 50 1 0.0 15.008371269147416 13.586873186504311 37.49539671034502
2470 50 1 0.0 15.03746298134786 14.659685000483815 37.4573949446387
2471 50 1 0.0 15.019991899167268 15.418434540074848 37.96713900533977
2472 50 1 0.0 14.96778024759595 15.753011344069826 39.000551241821576
2473 50 1 0.0 14.943028910727813 15.66919366689615 40.20400975654111
2474 50 1 0.0 15.009482647319938 15.176311220186257 41.213793633398346
2475 50 1 0.0 15.207223827132804 14.302374102619455 41.71721120751456
2476 50 1 0.0 15.407246955036918 13.208879642822797 41.76621815106738
2477 50 1 0.0 15.406969392770431 12.115410999715424 41.57144331676563
2478 50 1 0.0 15.003518464585746 11.241783941381408 41.344161198146736
2479 50 1 0.0 14.09598214090135 10.757626401299111 41.24370675055726
2480 50 1 0.0 12.932662336291711 10.660673604039248 41.25152265746007
2481 50 1 0.0 11.836563126256555 10.911890315783682 41.310997746383315
2482 50 1 0.0 11.128324563156625 11.472137734269849 41.36582246591502
2483 50 1 0.0 10.935254329428746 12.293807117810498 41.384354161263666
2484 50 1 0.0 11.050903711111927 13.314667773613401 41.37753349945568
2485 50 1 0.0 11.235722967700994 14.471038844642743 41.360524442354915
2486 50 1 0.0 11.26161934927604 15.697524535006117 41.34800185012228
2487 50 1 0.0 11.125685545749548 16.89502218153744 41.34502736195397
2488 50 1 0.0 11.03076541287072 17.93363127178137 41.347879049945185
2489 50 1 0.0 11.18726301363857 18.682319644172367 41.35251223911263
2490 50 1 0.0 11.775396378474756 19.032950911954632 41.35527619717141
2491 50 1 0.0 12.734212633918558 19.060314175234232 41.35566759176152
2492 50 1 0.0 13.88716289337164 18.926876842910765 41.35469167583403
2493 50 1 0.0 15.056971685370277 18.795657371279614 41.353363186571464
2494 50 1 0.0 16.110436261319613 18.78418257141192 41.352516309888685
2495 50 1 0.0 17.081735106426827 18.837209177789806 41.35229952653015
2496 50 1 0.0 18.044776086041708 18.858485456416638 41.35269855920136
2497 50 1 0.0 19.072912610505444 18.752677422268192 41.353696410145254
2498 50 1 0.0 20.17782231216388 18.52653851105896 41.35497346617518
2499 50 1 0.0 21.254205765941908 18.380445757037375 41.35563616005572
2500 50 1 0.0 22.183707198404143 18.536387416418947 41.354726862895525
2501 51 1 0.0 22.849910006497858 19.20408302201139 41.35138799625643
2502 51 1 0.0 23.180998505938174 20.3110714682512 41.34706314212269
2503 51 1 0.0 23.14975793120842 21.50271101120413 41.34549704290103
2504 51 1 0.0 22.730912687173248 22.412091183526893 41.350534491451306
2505 51 1 0.0 21.9158066971033 22.724114562225775 41.364779839956
2506 51 1 0.0 20.844684810121016 22.587897553261808 41.379723835448985
2507 51 1 0.0 19.73629941048825 22.397311813650393 41.38099761232742
2508 51 1 0.0 18.81010865218189 22.54842930950018 41.35417962804317
2509 51 1 0.0 18.25038866367465 23.316502030954396 41.29564539844564
2510 51 1 0.0 18.093192499861424 24.467763287982834 41.24725881472412
2511 51 1 0.0 18.33554497874375 25.63441798894827 41.262861195372636
2512 51 1 0.0 18.97408718849002 26.449782718200215 41.395816259717435
2513 51 1 0.0 19.94445940179846 26.724088175851225 41.62351736775527
2514 51 1 0.0 21.055034337710723 26.636665483813548 41.76485898553006
2515 51 1 0.0 22.098255337143875 26.41304402911888 41.61889714625943
2516 51 1 0.0 22.869777932792353 26.273123452467424 40.99352730513389
2517 51 1 0.0 23.252677509947805 26.283589754656326 39.93720993310941
2518 51 1 0.0 23.22570656890955 26.343443466757975 38.761693141155945
2519 51 1 0.0 22.77248547268911 26.343153614213886 37.79212059554848
2520 51 1 0.0 21.8936662925592 26.192143292194338 37.31979125496152
2521 51 1 0.0 20.761631168834302 25.990948762746687 37.29474917377482
2522 51 1 0.0 19.648238930795074 25.950810867290702 37.469362436386156
2523 51 1 0.0 18.826564785479977 26.284324117028223 37.59358199152699
2524 51 1 0.0 18.498742425990805 27.12898855503858 37.488427580219955
2525 51 1 0.0 18.535271686658437 28.271256342076665 37.307147796782544
2526 51 1 0.0 18.709824645944675 29.395083534386593 37.29999271306147
2527 51 1 0.0 18.796553591665152 30.185001257316735 37.71657050582615
2528 51 1 0.0 18.68932778075113 30.468513062471224 38.64741133303778
2529 51 1 0.0 18.557138414763596 30.401687885543833 39.8174676554795
2530 51 1 0.0 18.60747763960734 30.186574555192212 40.90053248683475
2531 51 1 0.0 19.042688676570776 30.02163143616634 41.57747844315905
2532 51 1 0.0 19.897098570391904 29.988155337584406 41.76019486942481
2533 51 1 0.0 21.00374155391101 30.027076947494855 41.63734212107181
2534 51 1 0.0 22.18377941114842 30.071048021515214 41.41390478104585
2535 51 1 0.0 23.271631233645003 30.059538196828502 41.281001846584495
2536 51 1 0.0 24.252788818197534 30.009709795236667 41.27174801884574
2537 51 1 0.0 25.208784250853217 29.988116111523244 41.31881114280157
2538 51 1 0.0 26.22268742610598 30.062101294560374 41.35325069650788
2539 51 1 0.0 27.3475161626307 30.264781935036247 41.32387929500054
2540 51 1 0.0 28.480305913345738 30.451619824283135 41.271655477695674
2541 51 1 0.0 29.467640798589382 30.42061563408166 41.267341695843996
2542 51 1 0.0 30.15624006733367 29.9700618107959 41.381538988869934
2543 51 1 0.0 30.45876104455492 29.02995269141516 41.612401354690526
2544 51 1 0.0 30.455018556969286 27.864155851971674 41.77442461978476
2545 51 1 0.0 30.250917334535504 26.78864972449402 41.653439286774294
2546 51 1 0.0 29.952867152992305 26.113935124565106 41.04124077401573
2547 51 1 0.0 29.68735467091268 25.932763372472735 39.96674540879759
2548 51 1 0.0 29.607206479076353 26.052208624807204 38.76996107169005
2549 51 1 0.0 29.86703584316428 26.259967151603494 37.81199742385262
2550 51 1 0.0 30.601835549482313 26.35759152132596 37.42191866345902
2551 52 1 0.0 31.69265376630713 26.325974080271585 37.514029863667716
2552 52 1 0.0 32.84352651543516 26.271016002527148 37.713528167094786
2553 52 1 0.0 33.754886827707296 26.301162952401594 37.63972607352398
2554 52 1 0.0 34.183033742701284 26.487522508523902 36.990335260503436
2555 52 1 0.0 34.20656374512677 26.685794528574977 35.91536130064517
2556 52 1 0.0 34.01940385640971 26.674597626045912 34.726658079228606
2557 52 1 0.0 33.81555565639497 26.232619477621046 33.73618852547839
2558 52 1 0.0 33.731656150663184 25.2724314874891 33.17895961891956
2559 52 1 0.0 33.74368378834595 24.08156759845186 33.07445103938623
2560 52 1 0.0 33.79970450647768 23.01270703176022 33.40469716350063
2561 52 1 0.0 33.84830139069724 22.413070856024373 34.14998037286564
2562 52 1 0.0 33.863590609827085 22.360395770727692 35.20408212034302
2563 52 1 0.0 33.8563916246512 22.54504013142284 36.33644051883764
2564 52 1 0.0 33.84036772311999 22.627347627421717 37.30685936920117
2565 52 1 0.0 33.828583514435785 22.285788563403685 37.8886405722214
2566 52 1 0.0 33.82525143562915 21.466856654989034 38.05467137394189
2567 52 1 0.0 33.8278232311539 20.321743837579476 37.93026885750345
2568 52 1 0.0 33.833579812173944 19.006814485630894 37.644601795833566
2569 52 1 0.0 33.83979528305195 17.67668975696546 37.32875960500314
2570 52 1 0.0 33.8437000344963 16.474795775661615 37.12616617767871
2571 52 1 0.0 33.842507176530916 15.540133095602275 37.185121416127764
2572 52 1 0.0 33.83343152446541 15.011646587042602 37.653890447364475
2573 52 1 0.0 33.817233184444014 14.937482145784642 38.58580612646107
2574 52 1 0.0 33.80565765350672 15.084437176394209 39.74004543678669
2575 52 1 0.0 33.81257175091378 15.164979582398551 40.818982705093475
2576 52 1 0.0 33.85145424283388 14.894196018333005 41.527850939324644
2577 52 1 0.0 33.91141476437183 14.151626632173244 41.75140388344141
2578 52 1 0.0 33.943152782619855 13.076020088470306 41.65735250356451
2579 52 1 0.0 33.89398795314305 11.828933489685587 41.43830591467963
2580 52 1 0.0 33.71887812248716 10.569001856025832 41.2795076455037
2581 52 1 0.0 33.502688835453576 9.405162448019793 41.24092989272051
2582 52 1 0.0 33.43893146248758 8.404788752795678 41.27777656382775
2583 52 1 0.0 33.72446056206847 7.633975280503163 41.34202769565287
2584 52 1 0.0 34.51127898996648 7.152865936845694 41.38986622946265
2585 52 1 0.0 35.63011658314892 6.978980411754039 41.40758053653824
2586 52 1 0.0 36.771607700237084 7.111251524962362 41.394586871213285
2587 52 1 0.0 37.625816486332994 7.548533612117867 41.35035709979088
2588 52 1 0.0 37.98018075966186 8.278000614524949 41.28416553214753
2589 52 1 0.0 37.95638907009698 9.246731648783515 41.23893493601482
2590 52 1 0.0 37.74779347595353 10.393209482894258 41.2648023237475
2591 52 1 0.0 37.54677848748017 11.655432905896058 41.41086154222195
2592 52 1 0.0 37.46610555545818 12.93157231272346 41.64036054620085
2593 52 1 0.0 37.48080030042064 14.050901010385514 41.768046902460426
2594 52 1 0.0 37.5521923785893 14.835841422894562 41.59390182387729
2595 52 1 0.0 37.64161143757972 15.122117730588657 40.93122227099886
2596 52 1 0.0 37.71038695529282 15.007765308996447 39.85589230948771
2597 52 1 0.0 37.7198482542573 14.830963414413862 38.684192479184254
2598 52 1 0.0 37.63132465127108 14.93874875926839 37.741270092704916
2599 52 1 0.0 37.424159136453156 15.623189034023467 37.307542871074865
2600 52 1 0.0 37.221968760167485 16.7360972489843 37.30518290285648
2601 53 1 0.0 37.21766721943857 17.917826551471734 37.484292391224585
2602 53 1 0.0 37.604607211195365 18.80738977368282 37.59388290082334
2603 53 1 0.0 38.4880270722441 19.150299439477184 37.47137834087879
2604 53 1 0.0 39.63776579512486 19.097449519030658 37.290736215779425
2605 53 1 0.0 40.74387258021599 18.89617215958034 37.30597365457583
2606 53 1 0.0 41.49784549752749 18.792510548600628 37.76940881398977
2607 53 1 0.0 41.753513096718635 18.88809359921744 38.74300801572125
2608 53 1 0.0 41.673221657150556 19.01008319806577 39.926963772192146
2609 53 1 0.0 41.45383965367941 18.954929206398063 40.98098720701996
2610 53 1 0.0 41.287058968971216 18.526249628043317 41.577188456564976
2611 53 1 0.0 41.245088454582024 17.69311328294131 41.67386431645678
2612 53 1 0.0 41.280419343891396 16.59036464507999 41.516060126309355
2613 53 1 0.0 41.340319360619155 15.360081298690302 41.36133261555724
2614 53 1 0.0 41.37657825246193 14.138786071749465 41.43185032790423
2615 53 1 0.0 41.38160295006192 13.013108524948702 41.631922277489075
2616 53 1 0.0 41.369259779811934 12.043317962298874 41.69792181813754
2617 53 1 0.0 41.35360937197648 11.289445009146245 41.36470173201644
2618 53 1 0.0 41.34593956829717 10.808768172936315 40.468645336605256
2619 53 1 0.0 41.34582996373322 10.646944997132998 39.27485402635651
2620 53 1 0.0 41.349770330714385 10.84656623672182 38.16156848955818
2621 53 1 0.0 41.35425690278385 11.44971598798332 37.505588951026255
2622 53 1 0.0 41.356825015328454 12.417214661023912 37.45256886673545
2623 53 1 0.0 41.35718243713541 13.539985993019648 37.66490688558615
2624 53 1 0.0 41.355309517051694 14.587636406998818 37.744366598953356
2625 53 1 0.0 41.351246941245776 15.334116336586954 37.305475637329394
2626 53 1 0.0 41.346683723087565 15.672048218977478 36.31145647474478
2627 53 1 0.0 41.34511644195387 15.624190959068516 35.10791255025121
2628 53 1 0.0 41.35013394723462 15.219946479797114 34.05996653292708
2629 53 1 0.0 41.36427375609938 14.493607427841146 33.49885163561027
2630 53 1 0.0 41.37944511044394 13.528908440910174 33.41320102254204
2631 53 1 0.0 41.38138816940074 12.438282296984724 33.59278887095945
2632 53 1 0.0 41.355767186562964 11.334514881289593 33.824942560217345
2633 53 1 0.0 41.29789554308321 10.306507928178288 33.935740456917586
2634 53 1 0.0 41.24829622411981 9.331257406822749 33.93282312356792
2635 53 1 0.0 41.26072171139577 8.353012772270931 33.87696090560263
2636 53 1 0.0 41.38864111038732 7.316205331516961 33.82882861238013
2637 53 1 0.0 41.61543311930215 6.210991710736727 33.823974357073396
2638 53 1 0.0 41.76305998836602 5.13283279802921 33.84008010246744
2639 53 1 0.0 41.630840919036636 4.191961269423269 33.846710509290055
2640 53 1 0.0 41.02505375629401 3.4976735402095405 33.814642026453676
2641 53 1 0.0 39.97998153187649 3.1285887386623634 33.754356253806385
2642 53 1 0.0 38.80360885364583 3.126500419363031 33.72399757705534
2643 53 1 0.0 37.82011395601133 3.5310233420300214 33.784530363310076
2644 53 1 0.0 37.32488771368038 4.366218669144543 33.983076594256
2645 53 1 0.0 37.28438570427378 5.47842625838698 34.20858990238132
2646 53 1 0.0 37.45553102160727 6.600777118310198 34.249270345351775
2647 53 1 0.0 37.59187317362926 7.464579534010463 33.89169579400149
2648 53 1 0.0 37.50821811019362 7.858719774754249 32.99613124869629
2649 53 1 0.0 37.338044706479344 7.871620682277149 31.806182504602685
2650 53 1 0.0 37.318132432363605 7.688802478138542 30.689718602768707
2651 54 1 0.0 37.685001152390825 7.495692575382414 30.014198858745136
2652 54 1 0.0 38.54499992525292 7.418239513897929 29.94997935212262
2653 54 1 0.0 39.673775726244735 7.431284316482486 30.16667062013247
2654 54 1 0.0 40.7952382298454 7.486027710150584 30.255543134858208
2655 54 1 0.0 41.636328579635745 7.5342727825206 29.816384647004714
2656 54 1 0.0 42.04503922729788 7.5518758233350205 28.78909117950207
2657 54 1 0.0 42.02849101638309 7.546312337637328 27.560649193788816
2658 54 1 0.0 41.604630691657455 7.527208964516285 26.548461828453206
2659 54 1 0.0 40.79942711208344 7.504221015777656 26.13425888280743
2660 54 1 0.0 39.74297221765223 7.48737596093567 26.236747827512517
2661 54 1 0.0 38.638081775951576 7.486961199702205 26.45124236050658
2662 54 1 0.0 37.68905913343903 7.513269448707696 26.366441102396507
2663 54 1 0.0 37.07877351134709 7.5696974752782715 25.660165028474786
2664 54 1 0.0 36.86615182456614 7.619766388078732 24.525582956325955
2665 54 1 0.0 37.06567277983105 7.612697081191445 23.340677822644015
2666 54 1 0.0 37.69167918168639 7.497761444533575 22.483490895171393
2667 54 1 0.0 38.69418395166237 7.280947138212993 22.185390443581714
2668 54 1 0.0 39.842640369548164 7.127430346657025 22.266066327088414
2669 54 1 0.0 40.87505902309561 7.230108375677469 22.47351864437434
2670 54 1 0.0 41.532944297836146 7.778048202981236 22.559327817782716
2671 54 1 0.0 41.731156442246025 8.770262923333338 22.452723388802873
2672 54 1 0.0 41.63424864190405 9.932021718641113 22.33881162313554
2673 54 1 0.0 41.42617538230657 10.96732369479004 22.42258057058771
2674 54 1 0.0 41.282408475636196 11.596097186907995 22.89634301208124
2675 54 1 0.0 41.2526207763947 11.774502713194632 23.764436127557772
2676 54 1 0.0 41.290218021350924 11.63947646598355 24.887349567183776
2677 54 1 0.0 41.34616250428963 11.332543068872088 26.12192185657177
2678 54 1 0.0 41.37754376547011 10.996544831640259 27.33359976875292
2679 54 1 0.0 41.380893482572915 10.782806236234244 28.443242843172865
2680 54 1 0.0 41.36836895793124 10.846012110848791 29.393663260424635
2681 54 1 0.0 41.35216531001391 11.340805571270808 30.127728457236064
2682 54 1 0.0 41.34194015027853 12.317686506341165 30.589163220728146
2683 54 1 0.0 41.33947098610509 13.50374310054514 30.72435479779177
2684 54 1 0.0 41.3450101662502 14.563468660818087 30.480205742404703
2685 54 1 0.0 41.35873210201502 15.165255419461106 29.80548694281209
2686 54 1 0.0 41.3758896889279 15.223701012490695 28.76694897385282
2687 54 1 0.0 41.383962998254354 15.04224899738033 27.617674307449622
2688 54 1 0.0 41.36974629560332 14.958651276092196 26.627185703470115
2689 54 1 0.0 41.32203926165748 15.295303620801706 26.0514405729835
2690 54 1 0.0 41.26385580173907 16.11261211337287 25.91495900660983
2691 54 1 0.0 41.24688064085737 17.251440839617207 26.048321359278642
2692 54 1 0.0 41.323684367819965 18.54587053179449 26.27611568459064
2693 54 1 0.0 41.52480539722388 19.835899620544453 26.439057975201603
2694 54 1 0.0 41.7225864527868 21.00401686789432 26.493666252058542
2695 54 1 0.0 41.7202407292255 21.95127877674759 26.447062567284135
2696 54 1 0.0 41.320702430017434 22.578824709405023 26.30658407921122
2697 54 1 0.0 40.42498421505788 22.83325120393906 26.106353213416376
2698 54 1 0.0 39.27152312051383 22.81754346665356 25.972643132989
2699 54 1 0.0 38.17126421741314 22.668292559875802 26.05152897549871
2700 54 1 0.0 37.43305020235334 22.521430369610336 26.48779102383868
2701 55 1 0.0 37.19162423528903 22.458301791656716 27.318981468673105
2702 55 1 0.0 37.27995051793957 22.46563225668066 28.396786515091378
2703 55 1 0.0 37.50090703408184 22.52071399342335 29.554362234129716
2704 55 1 0.0 37.66368067158908 22.600257201089157 30.631513935615995
2705 55 1 0.0 37.70228337754837 22.66945631159711 31.599605693476494
2706 55 1 0.0 37.665228062621765 22.682942441625034 32.55067931534723
2707 55 1 0.0 37.60526689715207 22.594955613880895 33.58124455598671
2708 55 1 0.0 37.56999343905482 22.379205436924405 34.763371983546776
2709 55 1 0.0 37.56558348863465 22.165720025303273 35.97291345011607
2710 55 1 0.0 37.57827784399432 22.159765988858627 36.99127772920084
2711 55 1 0.0 37.59418985092993 22.567090641805958 37.59927010775411
2712 55 1 0.0 37.602346787672055 23.495934805715375 37.67808242925065
2713 55 1 0.0 37.60289257681132 24.682552296320065 37.491880978899076
2714 55 1 0.0 37.59862170859678 25.77450319272752 37.3961455387149
2715 55 1 0.0 37.59232843017516 26.42135071663631 37.744347783564805
2716 55 1 0.0 37.58677955448272 26.498713693041694 38.66334353243586
2717 55 1 0.0 37.58468964680418 26.31272723221867 39.84840533437376
2718 55 1 0.0 37.58876741129133 26.217821690267346 40.94639079843462
2719 55 1 0.0 37.60138423869433 26.556656555874323 41.615732684154416
2720 55 1 0.0 37.61709825397066 27.399240082211573 41.78298155142973
2721 55 1 0.0 37.62262360579366 28.541857615543933 41.643859612983015
2722 55 1 0.0 37.604330987307144 29.768809299408915 41.40587500352505
2723 55 1 0.0 37.55300789448108 30.884595402672684 41.25901334889454
2724 55 1 0.0 37.49921439366427 31.875614942652486 41.23547301460929
2725 55 1 0.0 37.49456698611895 32.824567958227284 41.28391647334764
2726 55 1 0.0 37.590874195118175 33.81503269561975 41.35224440073248
2727 55 1 0.0 37.80130575783647 34.89875363746563 41.39670017729437
2728 55 1 0.0 37.975508434618625 35.992751784861326 41.408834295382036
2729 55 1 0.0 37.91987771088017 36.97841423318322 41.389535859139336
2730 55 1 0.0 37.441711671666205 37.737283463027914 41.339781582917766
2731 55 1 0.0 36.49435918739272 38.17607367271497 41.27471074606687
2732 55 1 0.0 35.33715321021286 38.25423513393181 41.2391339469571
2733 55 1 0.0 34.26791353827393 37.937851290661904 41.28159385877516
2734 55 1 0.0 33.57704005316244 37.1978011226035 41.44657964599328
2735 55 1 0.0 33.35145910077747 36.13646975229535 41.66742265302701
2736 55 1 0.0 33.45452809667074 35.00073621687784 41.755318267661934
2737 55 1 0.0 33.73815428153237 34.044879868848255 41.51520663435365
2738 55 1 0.0 34.055288697274094 33.50050123785843 40.78137575860574
2739 55 1 0.0 34.26946215450999 33.369332661140604 39.6855779286134
2740 55 1 0.0 34.25035888415815 33.519410206913 38.53257703692864
2741 55 1 0.0 33.86773930178845 33.817114668246276 37.62927900902039
2742 55 1 0.0 33.044308545221874 34.12727537469346 37.21333209201724
2743 55 1 0.0 31.951399563594855 34.30743600083853 37.19715126616094
2744 55 1 0.0 30.833263134855937 34.2130034766307 37.39776675343326
2745 55 1 0.0 29.93389223478768 33.6998624138052 37.63239915695443
2746 55 1 0.0 29.430873469783876 32.742639888933525 37.7686524910418
2747 55 1 0.0 29.348536939108357 31.59000379088863 37.79040855614368
2748 55 1 0.0 29.689662780204937 30.52915589629021 37.69789940039811
2749 55 1 0.0 30.45362632178515 29.841470764992057 37.493755068102395
2750 55 1 0.0 31.52778131219573 29.616601752270324 37.25950205284347
2751 56 1 0.0 32.664743608257936 29.713602798707665 37.17156232452176
2752 56 1 0.0 33.6091323866899 29.977841793172086 37.41198988986704
2753 56 1 0.0 34.126912474542515 30.257762100619114 38.13841758037461
2754 56 1 0.0 34.22861523059528 30.437044172177256 39.228674050377066
2755 56 1 0.0 34.080874977766186 30.421859735930603 40.381993356143695
2756 56 1 0.0 33.85285322469541 30.11874463626482 41.29471824614092
2757 56 1 0.0 33.69276887549807 29.4591634151417 41.72472240120512
2758 56 1 0.0 33.63964233087285 28.50456332341067 41.75071284076745
2759 56 1 0.0 33.69701799648572 27.358619900685255 41.555627700713735
2760 56 1 0.0 33.86830914392557 26.12503091595319 41.32234815566695
2761 56 1 0.0 34.109612005594315 24.90743471725008 41.18650696045572
2762 56 1 0.0 34.256553914109595 23.809318367215834 41.163442674687296
2763 56 1 0.0 34.12587091185659 22.9341452047221 41.24962996397441
2764 56 1 0.0 33.53930162697789 22.383367053173625 41.4398482986071
2765 56 1 0.0 32.51924692526421 22.17775042352749 41.66087997637768
2766 56 1 0.0 31.352411694472472 22.23178646151478 41.749944224397304
2767 56 1 0.0 30.3435353292951 22.452714725104144 41.53814902785421
2768 56 1 0.0 29.776302240109604 22.74501011695321 40.8747552302451
2769 56 1 0.0 29.66033847343762 22.97716190801981 39.84530704495612
2770 56 1 0.0 29.8134746297533 22.992475389520358 38.70070789457373
2771 56 1 0.0 30.04959873494523 22.63373816718612 37.69526034920882
2772 56 1 0.0 30.205233086165215 21.794858037462976 37.05477686534799
2773 56 1 0.0 30.24808529778987 20.66602882948174 36.839944875117965
2774 56 1 0.0 30.193011371970233 19.54393044152158 37.05210539258304
2775 56 1 0.0 30.05496014940184 18.725248699124425 37.692448975586515
2776 56 1 0.0 29.874785531187502 18.395800182314332 38.70162864255296
2777 56 1 0.0 29.766210059424914 18.429536101099046 39.85001067421035
2778 56 1 0.0 29.855674995302422 18.645973714460098 40.8782389748013
2779 56 1 0.0 30.26789056995175 18.86603797339373 41.530429389801654
2780 56 1 0.0 31.041248664798804 18.98084882702114 41.72382718917298
2781 56 1 0.0 32.08956441880894 18.982833353635858 41.62554224061771
2782 56 1 0.0 33.31694593252047 18.8723124982063 41.422153898709006
2783 56 1 0.0 34.62489801742899 18.65609535384278 41.291219023613614
2784 56 1 0.0 35.876203609582134 18.437497110386218 41.27609197289402
2785 56 1 0.0 36.903955194504796 18.393830135170912 41.31722576687281
2786 56 1 0.0 37.54048828533302 18.704293389341885 41.35244990653727
2787 56 1 0.0 37.668976534713124 19.50102980002169 41.331995784672884
2788 56 1 0.0 37.500618027441 20.612561253364873 41.2861158875556
2789 56 1 0.0 37.37684232010377 21.74686673945811 41.27683248370397
2790 56 1 0.0 37.639339607195375 22.61166337315358 41.36622349739375
2791 56 1 0.0 38.48317852451646 23.00644055030196 41.56371346769783
2792 56 1 0.0 39.64709262505245 23.016313544855535 41.71485207714571
2793 56 1 0.0 40.78129194912941 22.78180561272505 41.63339925883916
2794 56 1 0.0 41.53919345163955 22.443523404970804 41.13567023792946
2795 56 1 0.0 41.77784791646776 22.14736902824162 40.20023710472906
2796 56 1 0.0 41.676564261558624 22.04762484528191 39.0624494941417
2797 56 1 0.0 41.44316165516708 22.299314621996324 37.98037420876007
2798 56 1 0.0 41.277426626269964 23.04255623895102 37.20434916986179
2799 56 1 0.0 41.24167176099894 24.162362030675975 36.85243699650588
2800 56 1 0.0 41.28278223018673 25.329549749094387 36.931637833458325
2801 57 1 0.0 41.344062144009875 26.20829189819934 37.44550618429151
2802 57 1 0.0 41.37547427768594 26.522124799339185 38.373320649566544
2803 57 1 0.0 41.374906938314965 26.421853979294063 39.51963478261622
2804 57 1 0.0 41.36123564138264 26.24539165931287 40.61248778560708
2805 57 1 0.0 41.3534240014169 26.33143206175573 41.37960519392318
2806 57 1 0.0 41.36309068954897 26.920781876664773 41.646633638833414
2807 57 1 0.0 41.376528557704056 27.916725527108994 41.576857747832065
2808 57 1 0.0 41.374575931549955 29.149853871828277 41.406280637830804
2809 57 1 0.0 41.338386663788825 30.45110083328576 41.3689224388222
2810 57 1 0.0 41.2754083968266 31.679988836357246 41.53355518682628
2811 57 1 0.0 41.238758458218875 32.74569567773526 41.6819314920459
2812 57 1 0.0 41.28611915425555 33.562362527860394 41.567114527239916
2813 57 1 0.0 41.46840340830669 34.048503001736066 40.95659600574535
2814 57 1 0.0 41.7021428282626 34.209429593841115 39.90429349187088
2815 57 1 0.0 41.78035994548807 34.13023113816544 38.72737686458053
2816 57 1 0.0 41.491487209155714 33.898961270684445 37.752799492404904
2817 57 1 0.0 40.66836730711561 33.60910610947499 37.265969369868834
2818 57 1 0.0 39.50128454410947 33.39787581562624 37.21791111277757
2819 57 1 0.0 38.352924424523586 33.42356952563555 37.39836958407866
2820 57 1 0.0 37.587083592359235 33.84462209056807 37.5960499566388
2821 57 1 0.0 37.43547025106804 34.74008690025337 37.65277101641814
2822 57 1 0.0 37.62473857144905 35.88549398586464 37.61343703036186
2823 57 1 0.0 37.76084945738518 36.983840098228065 37.57148380576254
2824 57 1 0.0 37.451889736612856 37.73946189585474 37.619628363006974
2825 57 1 0.0 36.54760026580634 38.009003510557314 37.76888312546934
2826 57 1 0.0 35.35889382109984 37.93977225952517 37.87433567637705
2827 57 1 0.0 34.248548066418394 37.711764383229706 37.77353778639644
2828 57 1 0.0 33.567620156631406 37.50131390469717 37.31008400319509
2829 57 1 0.0 33.39471870363149 37.399624943279655 36.46803596351244
2830 57 1 0.0 33.53439588557723 37.41226930937979 35.372751378083784
2831 57 1 0.0 33.77916178992907 37.54105611380931 34.15579653342867
2832 57 1 0.0 33.9383411508355 37.775073732202095 32.943987512702506
2833 57 1 0.0 33.9730555800159 37.988572095097155 31.821257188260407
2834 57 1 0.0 33.9249566083085 37.99487807029937 30.84878841577121
2835 57 1 0.0 33.83643539842301 37.606758974090255 30.08755510201173
2836 57 1 0.0 33.74918160011808 36.71702540692868 29.59670193360565
2837 57 1 0.0 33.70190928581271 35.55800412822739 29.427614672657853
2838 57 1 0.0 33.73254372276797 34.45202530405425 29.62962224356299
2839 57 1 0.0 33.87858820366777 33.72037427690742 30.25149409206582
2840 57 1 0.0 34.108703779055716 33.513774872169535 31.250725743281222
2841 57 1 0.0 34.2470218977832 33.624868619147 32.39318933843191
2842 57 1 0.0 34.09945035033863 33.8011466464443 33.420595331159795
2843 57 1 0.0 33.480304711993675 33.79863500419606 34.08115422597929
2844 57 1 0.0 32.4353439230418 33.60830283515965 34.30200518526129
2845 57 1 0.0 31.265127889537297 33.479773173048024 34.207273769407244
2846 57 1 0.0 30.28330936430347 33.67595987938035 33.93120760691073
2847 57 1 0.0 29.77296848916557 34.42263733645842 33.60874448024422
2848 57 1 0.0 29.706495369340587 35.56815497723213 33.38183576862628
2849 57 1 0.0 29.875208602390586 36.740897328945394 33.39652040603228
2850 57 1 0.0 30.06817103357727 37.56650864043958 33.798888248369394
2851 58 1 0.0 30.119047635061804 37.7777208548289 34.67298573302078
2852 58 1 0.0 30.071429806217665 37.61128979525261 35.8108428827184
2853 58 1 0.0 30.030614227632782 37.45212288095338 36.91865510077902
2854 58 1 0.0 30.101560788296396 37.68438126351817 37.70312391916226
2855 58 1 0.0 30.302594163834186 38.49986995327367 38.00091125361315
2856 58 1 0.0 30.451673079821145 39.64552149477393 37.94924543802269
2857 58 1 0.0 30.33851452056915 40.805563301934875 37.727719883839875
2858 58 1 0.0 29.75967493527456 41.66874054973013 37.513574882912714
2859 58 1 0.0 28.737666427837972 42.07305185252878 37.40631062768791
2860 58 1 0.0 27.56731312997258 42.0363696445986 37.41173828947271
2861 58 1 0.0 26.559651238301747 41.58727512716011 37.53009127459478
2862 58 1 0.0 26.000896503694925 40.76301189634084 37.75254503068451
2863 58 1 0.0 25.892112150319818 39.70034246181 37.96621161203618
2864 58 1 0.0 26.051986779795236 38.59967851251666 37.99164738676295
2865 58 1 0.0 26.29624026835926 37.66246782966373 37.64832531810524
2866 58 1 0.0 26.463997989703145 37.06666884124324 36.815957121188056
2867 58 1 0.0 26.51670509684557 36.86748195623417 35.68906904786018
2868 58 1 0.0 26.455633464573694 37.08013817314935 34.564689423077
2869 58 1 0.0 26.282181944547563 37.71968236214254 33.739632334177806
2870 58 1 0.0 26.042709835064986 38.730994168444994 33.395585244541444
2871 58 1 0.0 25.89829200080411 39.879928247121995 33.42049263097194
2872 58 1 0.0 26.028034665923066 40.90419953292372 33.656127508520235
2873 58 1 0.0 26.606232773168397 41.54607535433281 33.94496883798866
2874 58 1 0.0 27.61332018949855 41.73125274818618 34.15794026905126
2875 58 1 0.0 28.77387879753141 41.627513732425705 34.20350589142151
2876 58 1 0.0 29.794981049257025 41.419207599990315 33.992698904184664
2877 58 1 0.0 30.40233315698128 41.28065314357673 33.444172289759116
2878 58 1 0.0 30.564872829365452 41.25523833238359 32.576042116413575
2879 58 1 0.0 30.422099038814277 41.29453849187949 31.47617096910155
2880 58 1 0.0 30.117034106166233 41.34823233908062 30.233862212908658
2881 58 1 0.0 29.792993098785143 41.373551734877466 28.94597052368433
2882 58 1 0.0 29.594991736920626 41.371607031647756 27.753218419670638
2883 58 1 0.0 29.668658294183814 41.359313051730226 26.81212905340517
2884 58 1 0.0 30.15949948323897 41.353596214801364 26.27912397867474
2885 58 1 0.0 31.109536626019448 41.363417605316585 26.206940810300267
2886 58 1 0.0 32.26905939823847 41.375283540538184 26.356025797262124
2887 58 1 0.0 33.33731994986111 41.3717719474643 26.43568974162251
2888 58 1 0.0 34.01750496054436 41.336003699551384 26.158704400870867
2889 58 1 0.0 34.20997708745803 41.278309021071856 25.411284694236556
2890 58 1 0.0 34.10023634218552 41.24836574042751 24.33046272924578
2891 58 1 0.0 33.89606338963781 41.29892631062927 23.07286948651132
2892 58 1 0.0 33.79391530386833 41.47384155670403 21.792690480418237
2893 58 1 0.0 33.82131819484304 41.68416338713054 20.607628543094663
2894 58 1 0.0 33.87601181915908 41.73891690196197 19.607357575934024
2895 58 1 0.0 33.85241219072958 41.444514362156426 18.88083367795002
2896 58 1 0.0 33.67679833633607 40.656176398086984 18.499434141933946
2897 58 1 0.0 33.481524251972765 39.54479319924883 18.420844816438972
2898 58 1 0.0 33.480935182567784 38.40685071041977 18.557517024244454
2899 58 1 0.0 33.88953385622718 37.53911389702715 18.82177890463563
2900 58 1 0.0 34.80705733196038 37.14506513035676 19.109999750125926
2901 59 1 0.0 35.975261970966876 37.13721676943072 19.268769514611062
2902 59 1 0.0 37.06630146510874 37.3715074818008 19.134999488117913
2903 59 1 0.0 37.75561412046086 37.70386855675624 18.548332837646427
2904 59 1 0.0 37.928369389206004 37.98976016236721 17.522850168405416
2905 59 1 0.0 37.802312852003716 38.0838953975442 16.34924206431866
2906 59 1 0.0 37.62469281492012 37.84092108892362 15.342737094897105
2907 59 1 0.0 37.628130121376415 37.12897521508842 14.801520616583353
2908 59 1 0.0 37.79411915844251 36.04781385973402 14.731177566577637
2909 59 1 0.0 37.89288513079476 34.89205018535796 14.891132233618197
2910 59 1 0.0 37.688071945828675 33.96236739434074 15.033140696683352
2911 59 1 0.0 36.98805944622622 33.51482334639293 14.952945383870762
2912 59 1 0.0 35.92398716030153 33.48351411639351 14.763640313737882
2913 59 1 0.0 34.76863448102981 33.661246065357595 14.7175860809476
2914 59 1 0.0 33.79538118257695 33.8402273036652 15.067727464050773
2915 59 1 0.0 33.223590199807646 33.872935814624526 15.953252660748129
2916 59 1 0.0 33.085953562741814 33.82012966346326 17.12023090519699
2917 59 1 0.0 33.37486804771338 33.787526780716895 18.229871777727535
2918 59 1 0.0 34.081771460596876 33.879538087209795 18.945794472566206
2919 59 1 0.0 35.1176825894943 34.090969003179985 19.133687790012566
2920 59 1 0.0 36.253655910629256 34.225863374146755 19.01093014494568
2921 59 1 0.0 37.246719077836964 34.0691474670772 18.83014527794821
2922 59 1 0.0 37.863234974689824 33.419388257284744 18.831450880511717
2923 59 1 0.0 38.05550044128466 32.34684082465149 19.00587605672012
2924 59 1 0.0 37.94703893896168 31.17195788399781 19.115064176016702
2925 59 1 0.0 37.66776142899724 30.22452561339765 18.912101519264105
2926 59 1 0.0 37.348980214481216 29.789363507781026 18.192953742480412
2927 59 1 0.0 37.13331427677737 29.788478924196156 17.099557266791546
2928 59 1 0.0 37.168847411255946 29.968522602585313 15.941065253482245
2929 59 1 0.0 37.60369872592075 30.075005462371948 15.027717794051718
2930 59 1 0.0 38.50847267928184 29.943501190819035 14.590676976836704
2931 59 1 0.0 39.656719535613554 29.754724982064598 14.558059560495767
2932 59 1 0.0 40.750841858837056 29.772057163368082 14.785399661436038
2933 59 1 0.0 41.49460736249983 30.257102673019556 15.128196029485945
2934 59 1 0.0 41.748091273816065 31.26818716773189 15.437897996145628
2935 59 1 0.0 41.670280876602384 32.474898573726485 15.558211055576425
2936 59 1 0.0 41.45386494354943 33.502995737702435 15.33196760618391
2937 59 1 0.0 41.28660033400451 33.99375090914422 14.61234266693894
2938 59 1 0.0 41.24119175099115 33.950334513384554 13.493784919811468
2939 59 1 0.0 41.274385523692516 33.74066567154742 12.313917121086583
2940 59 1 0.0 41.33781482094731 33.748747022533635 11.421084737211524
2941 59 1 0.0 41.38640975137732 34.311876964445716 11.114326904518741
2942 59 1 0.0 41.40493956286325 35.34465453270232 11.246433040683726
2943 59 1 0.0 41.394036078925225 36.5369705177841 11.432964878801155
2944 59 1 0.0 41.35447785151775 37.576637164433215 11.287289801719885
2945 59 1 0.0 41.29401345160718 38.202770026265775 10.538002077187036
2946 59 1 0.0 41.25002268845096 38.37258744366634 9.40355335757769
2947 59 1 0.0 41.26775812337809 38.101255695255084 8.232545972794608
2948 59 1 0.0 41.392063645145946 37.40436701548319 7.372670900429747
2949 59 1 0.0 41.60052787675153 36.367527467307184 7.021491884649757
2950 59 1 0.0 41.729246349461484 35.223639729749685 7.060731728843714
2951 60 1 0.0 41.59643001794801 34.224224617742706 7.33219127676383
2952 60 1 0.0 41.02752230480334 33.61382939955303 7.677961421170708
2953 60 1 0.0 40.04781777762858 33.44430483908386 7.948147833067189
2954 60 1 0.0 38.90306391299775 33.55494097193446 8.001697169471502
2955 60 1 0.0 37.850373445355416 33.774069450339354 7.6980118767417185
2956 60 1 0.0 37.13209235905018 33.9405965419449 6.921845817981616
2957 60 1 0.0 36.8401080375551 34.00117340269091 5.81625875762839
2958 60 1 0.0 36.97844163792892 33.965373060014066 4.675158365649606
2959 60 1 0.0 37.55001291476475 33.84355726652168 3.79434318933723
2960 60 1 0.0 38.5195113239212 33.662952234387085 3.4008348306280403
2961 60 1 0.0 39.67128141198906 33.530339385420994 3.3972113903371315
2962 60 1 0.0 40.736538914231986 33.57593675375718 3.590471351161997
2963 60 1 0.0 41.44702312697885 33.9297099323776 3.787863905938564
2964 60 1 0.0 41.669153739982676 34.65676469764211 3.8636377788666385
2965 60 1 0.0 41.58149404099469 35.67188370900093 3.8473239460949795
2966 60 1 0.0 41.40670963964153 36.868610688025555 3.7903929907382
2967 60 1 0.0 41.36198821344019 38.14019270601527 3.743475847075273
2968 60 1 0.0 41.482793082562424 39.37003578865163 3.729349025122933
2969 60 1 0.0 41.585149288020204 40.42966256773622 3.737153879895172
2970 60 1 0.0 41.47197696764515 41.18988599612684 3.7540230674157757
2971 60 1 0.0 40.96307372149152 41.53787998187408 3.7677318012280105
2972 60 1 0.0 40.07266381749821 41.54929499187516 3.7734574928949556
2973 60 1 0.0 38.93957090528506 41.42056771514856 3.7711212926158506
2974 60 1 0.0 37.70465800037537 41.350111795170704 3.7607219931809386
2975 60 1 0.0 36.498415524387184 41.48122332097055 3.743878028693663
2976 60 1 0.0 35.39700145602803 41.66848840148936 3.7306916387521953
2977 60 1 0.0 34.45884426117596 41.67228263308976 3.7340334593365556
2978 60 1 0.0 33.74235779559785 41.2532651668931 3.7667380828397796
2979 60 1 0.0 33.30389508472669 40.31726373128412 3.825396464419922
2980 60 1 0.0 33.194539663346525 39.141298407246275 3.865064992776594
2981 60 1 0.0 33.46454484507413 38.06087154074331 3.834256183858643
2982 60 1 0.0 34.161025463765775 37.40552387099897 3.683961080518721
2983 60 1 0.0 35.204064702523496 37.26349690863072 3.4654904306971988
2984 60 1 0.0 36.34576083096714 37.403941372308836 3.3628163850621946
2985 60 1 0.0 37.32668197103447 37.57410622846391 3.569016707003276
2986 60 1 0.0 37.904318819182436 37.54268355789247 4.256337294497144
2987 60 1 0.0 38.05768470999116 37.359063585648066 5.324327371760727
2988 60 1 0.0 37.9214411136203 37.26986307392185 6.480931687687376
2989 60 1 0.0 37.6334805816584 37.52579298750558 7.4301174962934855
2990 60 1 0.0 37.331108706971996 38.31304287920468 7.924858581076987
2991 60 1 0.0 37.14821335813303 39.44210910769558 8.003482362846874
2992 60 1 0.0 37.217448697932504 40.58787297742685 7.807321186649305
2993 60 1 0.0 37.671365999363644 41.425174011214054 7.47785024755331
2994 60 1 0.0 38.55543139421528 41.75061069816474 7.159660506014416
2995 60 1 0.0 39.66907578484885 41.70477815864662 7.00614566473503
2996 60 1 0.0 40.76858746227648 41.488591789120555 7.172242999216056
2997 60 1 0.0 41.6120717284109 41.301010351516645 7.809111844904125
2998 60 1 0.0 42.04914762282817 41.24244672721233 8.877635620350631
2999 60 1 0.0 42.062037027161516 41.27052142380858 10.06298911282514
3000 60 1 0.0 41.64335263508709 41.33166568105873 11.028742470345145
3001 61 1 0.0 40.7958104769425 41.374720161287904 11.462860533073405
3002 61 1 0.0 39.67330243534023 41.384577627525346 11.418325016233876
3003 61 1 0.0 38.54609586333006 41.373883821312674 11.229108348279162
3004 61 1 0.0 37.68745169519519 41.35599838717572 11.236411014593436
3005 61 1 0.0 37.320073059207246 41.342967783525395 11.729818034516546
3006 61 1 0.0 37.3389084084052 41.33832538399761 12.66430318443525
3007 61 1 0.0 37.50822191658537 41.34221017480371 13.861422070331033
3008 61 1 0.0 37.59198427879442 41.35475101701277 15.142396315302335
3009 61 1 0.0 37.45601207425414 41.37311833954666 16.35546743169094
3010 61 1 0.0 37.284507144968615 41.38523407587507 17.43334509280029
3011 61 1 0.0 37.323716868188214 41.377217852898816 18.325199759760732
3012 61 1 0.0 37.816653554118005 41.33558219693051 18.980248104137758
3013 61 1 0.0 38.79860676852642 41.27206759492586 19.35067395651715
3014 61 1 0.0 39.97481088579389 41.238499789795675 19.39337573105824
3015 61 1 0.0 41.021142004205394 41.29027009179333 19.065671202226476
3016 61 1 0.0 41.629286274110505 41.47484427098375 18.33283876652698
3017 61 1 0.0 41.76321237306326 41.70319353667878 17.29725556488257
3018 61 1 0.0 41.616407894534326 41.771231830528336 16.176865298856786
3019 61 1 0.0 41.38953942108849 41.47127428461799 15.19322640945756
3020 61 1 0.0 41.26100758951472 40.64449177834375 14.54903491983943
3021 61 1 0.0 41.24818280766634 39.48538633874516 14.31057138283526
3022 61 1 0.0 41.2976194141064 38.343844004913144 14.484125084653103
3023 61 1 0.0 41.355567068334906 37.57040919827034 15.075721459369825
3024 61 1 0.0 41.38133733541518 37.38220548004484 16.043100887136394
3025 61 1 0.0 41.37948219895636 37.53424806680795 17.176766583621106
3026 61 1 0.0 41.364341496480506 37.68157412199119 18.231039673625133
3027 61 1 0.0 41.3501825080656 37.48134193543079 18.961748345867004
3028 61 1 0.0 41.34514928696398 36.76971469808334 19.25190407573485
3029 61 1 0.0 41.346707076968386 35.69503727992027 19.20632395246522
3030 61 1 0.0 41.35124813301234 34.437022042287715 18.95211172126229
3031 61 1 0.0 41.35525692025592 33.1721702655282 18.617242426292062
3032 61 1 0.0 41.357060620816505 32.01281341239976 18.34710303481148
3033 61 1 0.0 41.35668670979749 31.01207282642671 18.303146666062904
3034 61 1 0.0 41.35422632994273 30.220852722314515 18.647428037952157
3035 61 1 0.0 41.35001250161536 29.689332716532512 19.502667486401993
3036 61 1 0.0 41.34633463865292 29.461831613524186 20.6734346708136
3037 61 1 0.0 41.34642970342132 29.57982962524891 21.810207954901138
3038 61 1 0.0 41.353540863274425 30.084788248379652 22.5624558515159
3039 61 1 0.0 41.368081628600706 30.973362979226152 22.708232025210524
3040 61 1 0.0 41.37959713431237 32.07011480176231 22.51947039755434
3041 61 1 0.0 41.375023541300905 33.158293087866 22.386661776815718
3042 61 1 0.0 41.34146833390164 34.02167906892012 22.698220588470793
3043 61 1 0.0 41.28579868367423 34.505396296040914 23.603080463091125
3044 61 1 0.0 41.25274682326473 34.57211728038082 24.791263165632824
3045 61 1 0.0 41.291324935016085 34.19780128403072 25.900918903373178
3046 61 1 0.0 41.44582013245233 33.365270295071426 26.5817902633621
3047 61 1 0.0 41.64990018458893 32.21801068122909 26.755010896125984
3048 61 1 0.0 41.725523316451465 31.06175660391826 26.615780187062903
3049 61 1 0.0 41.489704637776626 30.209421642898594 26.371424851751893
3050 61 1 0.0 40.788961772000484 29.927708454163 26.212551900004026
3051 62 1 0.0 39.737504238165734 30.064023565008288 26.17806161668591
3052 62 1 0.0 38.59214019325847 30.242415762628934 26.226040587412427
3053 62 1 0.0 37.611006192466476 30.08485311293882 26.313822566113508
3054 62 1 0.0 37.01187963204149 29.327081587062395 26.399680175064972
3055 62 1 0.0 36.84057361214702 28.189637669500108 26.445886413122683
3056 62 1 0.0 37.09710885074389 27.0221527381751 26.415779539650067
3057 62 1 0.0 37.78104549569416 26.173331707888565 26.273100500414344
3058 62 1 0.0 38.815573022250234 25.837933701328634 26.048419468800525
3059 62 1 0.0 39.96287456303936 25.88616591433391 25.913197475264955
3060 62 1 0.0 40.96473229665075 26.147111889877902 26.056747691072708
3061 62 1 0.0 41.570168042177386 26.451169641819373 26.660428251971545
3062 62 1 0.0 41.72901894284451 26.665198372481072 27.684938127691602
3063 62 1 0.0 41.61307408103029 26.696356158379235 28.847091863298107
3064 62 1 0.0 41.40560277877884 26.45388549455714 29.85108932855203
3065 62 1 0.0 41.27636253145291 25.858605183165825 30.42661546045562
3066 62 1 0.0 41.25707738696187 24.949594689150054 30.56370427929571
3067 62 1 0.0 41.29869745886231 23.835136842214823 30.404739979537883
3068 62 1 0.0 41.35115410391201 22.624387295690966 30.094028263829852
3069 62 1 0.0 41.37379359089317 21.422258439387086 29.77574323309703
3070 62 1 0.0 41.370476253248086 20.313600350651782 29.59343677028189
3071 62 1 0.0 41.358205416406136 19.377339612453873 29.69047704547084
3072 62 1 0.0 41.35394901259823 18.692317611224457 30.209766374215263
3073 62 1 0.0 41.36511175721825 18.3157658168017 31.174834980900478
3074 62 1 0.0 41.376887016205764 18.254724908904063 32.33196169248204
3075 62 1 0.0 41.371322429103515 18.50912719710425 33.38815905714732
3076 62 1 0.0 41.33141015497763 19.077884777635667 34.05656692531134
3077 62 1 0.0 41.27160578869568 19.92592483048055 34.254435253586564
3078 62 1 0.0 41.244433017120684 20.97705566587906 34.14596993654931
3079 62 1 0.0 41.304696031156766 22.152622330386176 33.910170991229364
3080 62 1 0.0 41.49445356428199 23.372404571970222 33.717217466039656
3081 62 1 0.0 41.70853778212851 24.53810090927892 33.63539477850169
3082 62 1 0.0 41.7472401250449 25.539799099673765 33.66755791529065
3083 62 1 0.0 41.40929618987183 26.26739582384143 33.815485083622015
3084 62 1 0.0 40.55954675763789 26.636437910522144 34.05737382626725
3085 62 1 0.0 39.40988948136116 26.697137271975368 34.24762153716053
3086 62 1 0.0 38.285722479533284 26.543746295944057 34.20013837124822
3087 62 1 0.0 37.51217671838373 26.27057892420413 33.72910142281464
3088 62 1 0.0 37.26915699839066 25.98794809688855 32.775656541992184
3089 62 1 0.0 37.36442821481524 25.847163951166735 31.606305140855124
3090 62 1 0.0 37.54698602501721 26.00601100116208 30.538929572233606
3091 62 1 0.0 37.57091233282475 26.61765464767109 29.88583271306052
3092 62 1 0.0 37.397092015427475 27.647450601931624 29.732460127670073
3093 62 1 0.0 37.26042562162928 28.811905163669085 29.863669541343334
3094 62 1 0.0 37.4146771002572 29.810393692733694 30.04362603570067
3095 62 1 0.0 38.088442368935034 30.363331534678696 30.05501986257424
3096 62 1 0.0 39.17992155519842 30.467338504259008 29.9237322568029
3097 62 1 0.0 40.354706394253164 30.31349051846303 29.84685808633759
3098 62 1 0.0 41.27353625695487 30.09691997671744 30.025063848344576
3099 62 1 0.0 41.66339906317768 29.98480032971292 30.62072691705042
3100 62 1 0.0 41.637927099642056 29.981129076489243 31.572759037390988
3101 63 1 0.0 41.45062513647807 30.030873176533078 32.739231018273415
3102 63 1 0.0 41.35505702059833 30.07893971611565 33.97812496910639
3103 63 1 0.0 41.48829439040187 30.088811943269853 35.16699349259614
3104 63 1 0.0 41.65757204973574 30.076569777271814 36.23880121979325
3105 63 1 0.0 41.61215376843753 30.06753735483493 37.136251817061165
3106 63 1 0.0 41.105698009770315 30.086492475806597 37.80207745770299
3107 63 1 0.0 40.11431194228379 30.130558695077813 38.18045326698493
3108 63 1 0.0 38.937073343141066 30.15670870079119 38.21764937483164
3109 63 1 0.0 37.89843938876211 30.118760080128148 37.86010053902636
3110 63 1 0.0 37.304146961188515 29.977903796578342 37.065901982531734
3111 63 1 0.0 37.178986071086435 29.805987567396137 35.96814463857874
3112 63 1 0.0 37.33104500433121 29.760211579799837 34.83489824283289
3113 63 1 0.0 37.562812932454335 29.999981348350275 33.93772009779768
3114 63 1 0.0 37.70037046825166 30.652424194313948 33.503159837015154
3115 63 1 0.0 37.72309669941833 31.634921974528453 33.46530480089876
3116 63 1 0.0 37.6716260841155 32.78104595257181 33.64137954877613
3117 63 1 0.0 37.58675334308819 33.924170154950914 33.84832185745723
3118 63 1 0.0 37.50791068965531 34.95014974343009 33.94923213326628
3119 63 1 0.0 37.47026149126724 35.909267517477836 33.95184203115024
3120 63 1 0.0 37.50813532066443 36.88392242661782 33.89213270807696
3121 63 1 0.0 37.654665169918864 37.95513151583434 33.80610321277013
3122 63 1 0.0 37.86572110314175 39.11468258398758 33.730907860353746
3123 63 1 0.0 37.97416096835905 40.21229934312452 33.70554029412413
3124 63 1 0.0 37.801871160676875 41.08503481704818 33.76915820695811
3125 63 1 0.0 37.183684257663465 41.57917034563723 33.953964723875416
3126 63 1 0.0 36.17809517463183 41.70041857237536 34.1720136587374
3127 63 1 0.0 35.03250516364027 41.589148622612534 34.23388011217052
3128 63 1 0.0 34.000248248001775 41.389958628086006 33.94695215569953
3129 63 1 0.0 33.31380248037551 41.235642844582486 33.16217661340727
3130 63 1 0.0 33.05444977997792 41.17342289101154 32.0462811030002
3131 63 1 0.0 33.236840045756516 41.21280859071611 30.905157596207
3132 63 1 0.0 33.87532667706808 41.36314182735317 30.045296605336233
3133 63 1 0.0 34.92202684762094 41.59714122253053 29.679335141801648
3134 63 1 0.0 36.11301675759829 41.760394854441465 29.694116011305145
3135 63 1 0.0 37.13752574892428 41.670923500268614 29.90583599936244
3136 63 1 0.0 37.68755062448642 41.148656363708376 30.13144492108446
3137 63 1 0.0 37.69012325623392 40.17560159488443 30.251845928327093
3138 63 1 0.0 37.483008257267656 39.017006480170586 30.25970306638212
3139 63 1 0.0 37.44534745415645 37.96665181454299 30.158939172163475
3140 63 1 0.0 37.93802862048194 37.30746205234058 29.957552811726497
3141 63 1 0.0 38.955934840934596 37.104685519717826 29.745263360055702
3142 63 1 0.0 40.1555695005464 37.222323987489965 29.687342947662255
3143 63 1 0.0 41.180717598162474 37.51681514561305 29.95190344137467
3144 63 1 0.0 41.71742627143392 37.8445385288481 30.674944813780222
3145 63 1 0.0 41.79441746899612 38.061402131209014 31.73209362521756
3146 63 1 0.0 41.60672838663372 38.02308508712207 32.872605699043966
3147 63 1 0.0 41.350495485850864 37.585265171538595 33.84490163815601
3148 63 1 0.0 41.187283523365544 36.67986738407049 34.43899053595297
3149 63 1 0.0 41.14557178339204 35.53233415379594 34.6049784189567
3150 63 1 0.0 41.22181996660142 34.43872648053075 34.33148969611418
3151 64 1 0.0 41.41199965652644 33.69377479214386 33.607992575694276
3152 64 1 0.0 41.65537219896286 33.437621517827125 32.52198923439927
3153 64 1 0.0 41.782302084409814 33.513564150230195 31.349229884924384
3154 64 1 0.0 41.61081397918182 33.73126271545696 30.386796372185582
3155 64 1 0.0 40.968839198480836 33.905057567437126 29.91911009169511
3156 64 1 0.0 39.91706224933949 33.959251697592855 29.933139683489095
3157 64 1 0.0 38.751676196347 33.92941248834002 30.114879743673367
3158 64 1 0.0 37.77933185005094 33.8560480119247 30.136960130680336
3159 64 1 0.0 37.27322867324302 33.7788528628547 29.704694615086154
3160 64 1 0.0 37.20227345693386 33.73012177491327 28.820708604136584
3161 64 1 0.0 37.372943780212395 33.73819949012493 27.64633029130299
3162 64 1 0.0 37.59019338161746 33.83139369340145 26.34437675089363
3163 64 1 0.0 37.69700728661982 34.00961274304198 25.068004824942417
3164 64 1 0.0 37.69878232659672 34.15148627412278 23.92911753800691
3165 64 1 0.0 37.64426149210835 34.1032757892865 23.028607664933116
3166 64 1 0.0 37.582102350752045 33.711799115155735 22.46694017728919
3167 64 1 0.0 37.546592385983566 32.91705386714244 22.27298483970213
3168 64 1 0.0 37.54166036598213 31.855892365858363 22.324357013468095
3169 64 1 0.0 37.56737890511081 30.690171350441275 22.47945977638189
3170 64 1 0.0 37.6230192827792 29.577982043124916 22.59967105290874
3171 64 1 0.0 37.685539857810454 28.57256602826117 22.629202440549044
3172 64 1 0.0 37.707189062418216 27.611051589524873 22.60399776762224
3173 64 1 0.0 37.63893302737581 26.624541405777997 22.56476123157212
3174 64 1 0.0 37.44588513174588 25.554679749190402 22.54862270587464
3175 64 1 0.0 37.23806306366154 24.451083994782394 22.556101768181353
3176 64 1 0.0 37.21045144202735 23.426683252153346 22.56625097083051
3177 64 1 0.0 37.559113129387065 22.595210066715037 22.557850446252043
3178 64 1 0.0 38.4091866073883 22.059898198456068 22.518837690944284
3179 64 1 0.0 39.54971580694556 21.8742300450559 22.48054487223107
3180 64 1 0.0 40.670289107925264 22.07696581026735 22.487145308505433
3181 64 1 0.0 41.46101391049275 22.706539135522178 22.582603709344625
3182 64 1 0.0 41.75031453487283 23.717402524571494 22.756360684988834
3183 64 1 0.0 41.688549741330405 24.868541285100644 22.870951291527923
3184 64 1 0.0 41.47178204997632 25.89119101965057 22.770894305186296
3185 64 1 0.0 41.29290895340724 26.522469189391956 22.304691533582552
3186 64 1 0.0 41.238957502598076 26.696241930790777 21.45407752586768
3187 64 1 0.0 41.26860781792314 26.58489416031571 20.362305128169922
3188 64 1 0.0 41.33282739988646 26.375143857746234 19.18233313923221
3189 64 1 0.0 41.385019394141686 26.241801883340813 18.057966993421047
3190 64 1 0.0 41.40679855720736 26.22176121449337 17.026990460177664
3191 64 1 0.0 41.39793200707346 26.263173520094554 16.058969170152434
3192 64 1 0.0 41.35848722161311 26.31272210200765 15.12233997566924
3193 64 1 0.0 41.294627862908946 26.327088696541377 14.186147773652102
3194 64 1 0.0 41.24459628944277 26.315567745268016 13.222637049063982
3195 64 1 0.0 41.25714897789425 26.304698037689896 12.205100984309693
3196 64 1 0.0 41.38091029949548 26.320983371914537 11.106926936817002
3197 64 1 0.0 41.603178241361675 26.370954670898442 9.943016993524134
3198 64 1 0.0 41.75376404421431 26.40985232141276 8.834883467487906
3199 64 1 0.0 41.637549878166496 26.384797770524937 7.920914338546235
3200 64 1 0.0 41.064447608102235 26.245295328494873 7.337088685849631
3201 65 1 0.0 40.049802857093255 26.03817539854869 7.120996015465173
3202 65 1 0.0 38.8817025053192 25.9394820106272 7.179600292232765
3203 65 1 0.0 37.867064460801586 26.134180563693295 7.4108466283637595
3204 65 1 0.0 37.29208954256851 26.788326491250835 7.710442849567729
3205 65 1 0.0 37.17023860031927 27.819025994548056 7.944642959537113
3206 65 1 0.0 37.322572699001654 28.967768261979533 7.958923262861735
3207 65 1 0.0 37.56611968346147 29.97236107414908 7.598324507335532
3208 65 1 0.0 37.73831748015407 30.601415216683296 6.758264100051394
3209 65 1 0.0 37.79599904012265 30.80373308896873 5.628853148526456
3210 65 1 0.0 37.73928382210399 30.593445320795084 4.507043570226117
3211 65 1 0.0 37.56839882384122 29.984823183708293 3.6898119956668616
3212 65 1 0.0 37.32553676313711 29.036180454452584 3.3632781335887243
3213 65 1 0.0 37.17197240469284 27.930806048099267 3.398993775405358
3214 65 1 0.0 37.289958347370636 26.87400485773139 3.613095528009884
3215 65 1 0.0 37.85805237057956 26.069630392731316 3.823218913116633
3216 65 1 0.0 38.86684939848842 25.647701370875026 3.923252247220933
3217 65 1 0.0 40.033498157150746 25.630822505037283 3.9180155349016252
3218 65 1 0.0 41.05359918556708 26.033134038352493 3.8210704519743457
3219 65 1 0.0 41.64026654939291 26.858914515378004 3.6501253200369486
3220 65 1 0.0 41.77023560402709 27.963999865466963 3.4853055929298207
3221 65 1 0.0 41.62398235265429 29.089501616883958 3.4549760262895237
3222 65 1 0.0 41.387270393365164 29.97355390400834 3.6887533099603966
3223 65 1 0.0 41.226153889826925 30.39828610995207 4.292869281960888
3224 65 1 0.0 41.17831195698767 30.432385419441708 5.221241339011592
3225 65 1 0.0 41.230017150794225 30.259288344919593 6.366794018307288
3226 65 1 0.0 41.36739497189496 30.062715750178597 7.622288082252578
3227 65 1 0.0 41.5520832470985 29.977588738188338 8.876652789029059
3228 65 1 0.0 41.66882773995217 29.985595633628 10.006786353481647
3229 65 1 0.0 41.58732128372825 30.0384268364276 10.887231708926153
3230 65 1 0.0 41.178602503209 30.08809607341677 11.394264203738645
3231 65 1 0.0 40.40109597482715 30.10761157807218 11.516649670569981
3232 65 1 0.0 39.352636123866155 30.103474850730013 11.422613925214817
3233 65 1 0.0 38.14352490155546 30.085182719366642 11.296432022560147
3234 65 1 0.0 36.88417149951439 30.06225668221972 11.311287253568729
3235 65 1 0.0 35.68684366622867 30.044645791765284 11.448134273097443
3236 65 1 0.0 34.66538198966839 30.04266092647523 11.525250556232834
3237 65 1 0.0 33.93367665516607 30.066624374513935 11.355783773634132
3238 65 1 0.0 33.58342884504587 30.121540254000667 10.781182944169913
3239 65 1 0.0 33.545092387238256 30.173765572606396 9.84856281774263
3240 65 1 0.0 33.67790922407154 30.172589562729694 8.69586657716414
3241 65 1 0.0 33.84081030066392 30.067230356746563 7.461436309437988
3242 65 1 0.0 33.924563930675696 29.853437781489056 6.268319091796284
3243 65 1 0.0 33.93070355210571 29.688849695311657 5.186349260074164
3244 65 1 0.0 33.88483563224723 29.76628773258558 4.273796211319931
3245 65 1 0.0 33.812618536578746 30.276629141156423 3.5889098418539844
3246 65 1 0.0 33.744146350615196 31.244565121605735 3.188273327447565
3247 65 1 0.0 33.717280551027855 32.40377841969476 3.125551248842424
3248 65 1 0.0 33.77066713768088 33.45855930209502 3.4541134024118647
3249 65 1 0.0 33.9375429296353 34.12397863928505 4.2192933366352845
3250 65 1 0.0 34.1423247758052 34.331987644103826 5.304754231085022
3251 66 1 0.0 34.20862529871527 34.21544233667087 6.444397632005173
3252 66 1 0.0 33.956254031615636 33.914778368885294 7.366474956853163
3253 66 1 0.0 33.238398397573675 33.57182919365614 7.834009778773566
3254 66 1 0.0 32.179552446812295 33.339790056971744 7.892665356342446
3255 66 1 0.0 31.03616182226144 33.37738208049981 7.725568441182631
3256 66 1 0.0 30.065551493002907 33.843363065672726 7.5167618551436215
3257 66 1 0.0 29.480674233683562 34.808484363456195 7.41164784437471
3258 66 1 0.0 29.323284364987114 36.00394755832771 7.406544146034724
3259 66 1 0.0 29.593853826255756 37.07907602488916 7.4618186191751645
3260 66 1 0.0 30.292150463940764 37.68521320196684 7.537877401012403
3261 66 1 0.0 31.33553741159391 37.7101241916993 7.5996065790928755
3262 66 1 0.0 32.48281494925198 37.496495814267185 7.620512545347628
3263 66 1 0.0 33.474770275932144 37.43869497496384 7.575080976816924
3264 66 1 0.0 34.06119212434084 37.91551636516959 7.441172113506045
3265 66 1 0.0 34.2041123569928 38.938584421409224 7.2762135036292594
3266 66 1 0.0 34.0807401802547 40.147277278275276 7.2183000039416685
3267 66 1 0.0 33.87787321167204 41.164385587038524 7.409121047230688
3268 66 1 0.0 33.76569198078945 41.655381860124436 7.973206725397276
3269 66 1 0.0 33.7628342506062 41.67498414566489 8.878599183121326
3270 66 1 0.0 33.80687899807331 41.4861142306989 10.009636648872709
3271 66 1 0.0 33.83463937751491 41.35366095780664 11.249866537984024
3272 66 1 0.0 33.803027488538135 41.46119948076531 12.485292695137678
3273 66 1 0.0 33.75498154214022 41.64427174305075 13.612432803525005
3274 66 1 0.0 33.7564510564735 41.64532354589787 14.530616915317665
3275 66 1 0.0 33.87292045603804 41.207843795641004 15.139515546683732
3276 66 1 0.0 34.09130126677054 40.25161871526622 15.396281556036001
3277 66 1 0.0 34.23216189403514 39.06966558244529 15.37976106195286
3278 66 1 0.0 34.094890122875874 38.002525523348545 15.184295496136064
3279 66 1 0.0 33.48719309637748 37.38106847179553 14.90509917222771
3280 66 1 0.0 32.449317815257736 37.26583849253647 14.661784902069115
3281 66 1 0.0 31.2795384412268 37.41742497911724 14.60103816920165
3282 66 1 0.0 30.289563245427978 37.580800271968464 14.870953987980426
3283 66 1 0.0 29.76185227874109 37.53026886825808 15.596036184549112
3284 66 1 0.0 29.678501018242542 37.34136182450132 16.65851889722941
3285 66 1 0.0 29.845123577766152 37.26659802625541 17.79828896872724
3286 66 1 0.0 30.0650807347381 37.560756162104205 18.75341573344296
3287 66 1 0.0 30.176196048870974 38.39562455394032 19.305550665592325
3288 66 1 0.0 30.179975232860215 39.54882596313871 19.44334009016641
3289 66 1 0.0 30.12646841051272 40.68108259308853 19.216820306266825
3290 66 1 0.0 30.06567748414741 41.45371505520052 18.676049504858792
3291 66 1 0.0 30.032978722755793 41.68946398676693 17.874275631824407
3292 66 1 0.0 30.029634736633696 41.5875752707903 16.87218659876349
3293 66 1 0.0 30.05205356584025 41.400873656618195 15.73152906727701
3294 66 1 0.0 30.096230943121565 41.37576078952445 14.514897634463312
3295 66 1 0.0 30.144313434835475 41.54288992944032 13.31336856494695
3296 66 1 0.0 30.161625117489663 41.670846214589325 12.25261461453667
3297 66 1 0.0 30.11247603521898 41.51241774234821 11.460393959355558
3298 66 1 0.0 29.970176090266587 40.848001202738196 11.050832290184125
3299 66 1 0.0 29.81256343431715 39.77865143659886 10.979721709529318
3300 66 1 0.0 29.78486866912127 38.61216106649722 11.100771978535818
3301 67 1 0.0 30.033443578080323 37.659762130055235 11.265994554637418
3302 67 1 0.0 30.67076259507826 37.17532072931421 11.350802715903768
3303 67 1 0.0 31.630625978405362 37.110146497373336 11.354034419992923
3304 67 1 0.0 32.78814227084431 37.316163925966556 11.315070731348067
3305 67 1 0.0 34.018414980175706 37.645241010360145 11.273289443977209
3306 67 1 0.0 35.20997326240793 37.95041292023026 11.255760107937821
3307 67 1 0.0 36.28589782118177 38.08771860440247 11.257876418989968
3308 67 1 0.0 37.174751466444825 37.91367360501708 11.270006237220274
3309 67 1 0.0 37.80566798862419 37.289183944279735 11.282604636723464
3310 67 1 0.0 38.1312086970443 36.25529850154204 11.289705111349923
3311 67 1 0.0 38.13509980883947 35.09270465821176 11.290101416686545
3312 67 1 0.0 37.80322561491112 34.09868402302679 11.282916941766942
3313 67 1 0.0 37.127454774017714 33.549729384177695 11.267865658637387
3314 67 1 0.0 36.178664541743856 33.447869195398795 11.252458709614258
3315 67 1 0.0 35.08357853950795 33.601129786019804 11.249718581865876
3316 67 1 0.0 33.97009679375659 33.81345082599774 11.272783859171174
3317 67 1 0.0 32.94382321147371 33.91747434420447 11.327588747166208
3318 67 1 0.0 31.979631096655943 33.91413518363093 11.37782545056848
3319 67 1 0.0 31.004894257342944 33.86551549066439 11.371838017611399
3320 67 1 0.0 29.946978890491387 33.833755029292874 11.25801095090738
3321 67 1 0.0 28.787441478929722 33.85458850021106 11.041146342368043
3322 67 1 0.0 27.661945620209888 33.88865950516858 10.88648743616658
3323 67 1 0.0 26.73336558053341 33.88335282256037 10.987606545121478
3324 67 1 0.0 26.162184881493452 33.787568969680464 11.534368681191847
3325 67 1 0.0 25.986652344997392 33.62770561203501 12.527090877909844
3326 67 1 0.0 26.066835847566306 33.543127642673596 13.689786974388893
3327 67 1 0.0 26.248722721082103 33.68212706010454 14.7246362670265
3328 67 1 0.0 26.38479285608408 34.18359672806287 15.349691853920417
3329 67 1 0.0 26.425547232957786 35.04452652831625 15.522660785428577
3330 67 1 0.0 26.397392753185514 36.15201900543322 15.386834194062605
3331 67 1 0.0 26.328714999516237 37.39031221050759 15.09034093436499
3332 67 1 0.0 26.249089492437164 38.64420810193391 14.779534248082237
3333 67 1 0.0 26.195860557307512 39.80219024734787 14.58917484661637
3334 67 1 0.0 26.209490141036735 40.75421964424763 14.649371358710832
3335 67 1 0.0 26.330428556190533 41.390282194124055 15.090187451438334
3336 67 1 0.0 26.55070173077778 41.65097269744495 15.963234209862032
3337 67 1 0.0 26.709944093760907 41.636152118833785 17.073232506894527
3338 67 1 0.0 26.61788871390202 41.4769316893129 18.176459875698146
3339 67 1 0.0 26.086968431873544 41.303752074055026 19.03052095092869
3340 67 1 0.0 25.105907778110712 41.20326683669185 19.479678415703567
3341 67 1 0.0 23.945242727015323 41.19213357945179 19.50672235508793
3342 67 1 0.0 22.900779842894924 41.28073322817757 19.106864880434625
3343 67 1 0.0 22.255252365885188 41.473998822759796 18.28328567245327
3344 67 1 0.0 22.06410815600148 41.68214955576596 17.177684042076997
3345 67 1 0.0 22.190071488932112 41.7350932854761 16.049215159573464
3346 67 1 0.0 22.489764685733874 41.46019507749684 15.160753046370314
3347 67 1 0.0 22.819488182131714 40.7219642731501 14.735250529078316
3348 67 1 0.0 23.033197639554068 39.65548775892573 14.70485441681714
3349 67 1 0.0 22.98381100411393 38.51560060476615 14.8730109189942
3350 67 1 0.0 22.524248904354035 37.557666704562145 15.042598276889034
3351 68 1 0.0 21.593969375772623 36.98851809276592 15.073288171750232
3352 68 1 0.0 20.43417743744033 36.845761231820305 15.022785133281241
3353 68 1 0.0 19.35180663300422 37.1301407503326 14.991930516589965
3354 68 1 0.0 18.651665962229345 37.841378133614306 15.080353025960001
3355 68 1 0.0 18.455819005682017 38.89118785904114 15.283373619920983
3356 68 1 0.0 18.565671279146354 40.036861070281844 15.413287493389888
3357 68 1 0.0 18.750156927134217 41.0200512647006 15.263855775949185
3358 68 1 0.0 18.78863616778202 41.59327615256097 14.64128286286287
3359 68 1 0.0 18.670919555481913 41.728347623351944 13.602940515074925
3360 68 1 0.0 18.582149114083666 41.600617532491974 12.439323858837566
3361 68 1 0.0 18.71486389837032 41.393145614873696 11.44975619718958
3362 68 1 0.0 19.238262811019823 41.271331893501404 10.900031004116897
3363 68 1 0.0 20.13135958346815 41.25667778632592 10.782726898289111
3364 68 1 0.0 21.280477503541697 41.30055292631118 10.957265922736754
3365 68 1 0.0 22.571317020160308 41.353855714975936 11.28217537876046
3366 68 1 0.0 23.881678551832838 41.378248688298406 11.613095280268611
3367 68 1 0.0 25.058813528806734 41.37701870521138 11.79450065773868
3368 68 1 0.0 25.942590233260727 41.36351248447084 11.668168163385712
3369 68 1 0.0 26.374194160345 41.35102936290217 11.077239042511593
3370 68 1 0.0 26.35011149148811 41.34728230178168 10.025741388072781
3371 68 1 0.0 26.1662744427417 41.34921278386759 8.827920393208322
3372 68 1 0.0 26.152718601990593 41.35253554754811 7.833351320228869
3373 68 1 0.0 26.626612327581388 41.3531276538976 7.3767410563866385
3374 68 1 0.0 27.600648187529135 41.35070718726683 7.440967819536807
3375 68 1 0.0 28.778227575784005 41.34889400231635 7.651516873209732
3376 68 1 0.0 29.84892150567394 41.351482426737356 7.617892162991115
3377 68 1 0.0 30.52698802709192 41.36129353677233 6.999519617395637
3378 68 1 0.0 30.75239603177167 41.3722500784322 5.9122563272139566
3379 68 1 0.0 30.586093218055527 41.373505379637635 4.716602028053421
3380 68 1 0.0 30.090178297703385 41.354167391235684 3.7753840282145172
3381 68 1 0.0 29.32673995558282 41.31121157213274 3.36228859755881
3382 68 1 0.0 28.35782386314692 41.275363455186415 3.368604350076658
3383 68 1 0.0 27.245464160163827 41.286396802388516 3.5831009655572488
3384 68 1 0.0 26.05178573158289 41.38376069971347 3.795010888815816
3385 68 1 0.0 24.854369344520983 41.5515867020745 3.8725917660068356
3386 68 1 0.0 23.763585216963065 41.65665094930865 3.851752169253991
3387 68 1 0.0 22.89398890214372 41.550750014886155 3.789800093710025
3388 68 1 0.0 22.35674219937053 41.09014769787529 3.742826617040582
3389 68 1 0.0 22.16778081392737 40.25645467098886 3.7327770592904224
3390 68 1 0.0 22.237169449263895 39.170640458374415 3.743633978250698
3391 68 1 0.0 22.469442576331293 37.96095407370694 3.7573969250543455
3392 68 1 0.0 22.76557782515013 36.75173027285373 3.7579405011753666
3393 68 1 0.0 22.98992977374934 35.627000612839545 3.7484457846706944
3394 68 1 0.0 22.985291152735627 34.647068114241506 3.7434605551608056
3395 68 1 0.0 22.59417770154708 33.871930972409444 3.757678612961216
3396 68 1 0.0 21.72294672793525 33.36110669694167 3.7980635024309124
3397 68 1 0.0 20.581861879220817 33.17182457909423 3.834780270433285
3398 68 1 0.0 19.471520087465436 33.360633758866285 3.8270559585337205
3399 68 1 0.0 18.69202266748767 33.983730542884224 3.7343105020033005
3400 68 1 0.0 18.408492840351034 35.00403803010027 3.5674467386721376
3401 69 1 0.0 18.470554308679645 36.16646133384303 3.4577042996464646
3402 69 1 0.0 18.682825988987922 37.18480614497666 3.5534883941905693
3403 69 1 0.0 18.853140325686315 37.779584204826705 3.9996718125628434
3404 69 1 0.0 18.897720801208536 37.89749971174834 4.821980234678698
3405 69 1 0.0 18.864712519021314 37.76055338437218 5.901126614085246
3406 69 1 0.0 18.810237241771485 37.607391783750224 7.109055689642759
3407 69 1 0.0 18.786217441673468 37.65290044804222 8.321017339854635
3408 69 1 0.0 18.79566993193566 37.83523995391608 9.450753668261875
3409 69 1 0.0 18.810017219494597 37.91379947685395 10.436873740057072
3410 69 1 0.0 18.8001533372485 37.644977905305986 11.21840256701267
3411 69 1 0.0 18.748109937447833 36.85425703064149 11.735379088383997
3412 69 1 0.0 18.694794726891867 35.73230698762645 11.933202100678777
3413 69 1 0.0 18.7004980248128 34.59002173001973 11.759034921423897
3414 69 1 0.0 18.825372139744093 33.738114453389244 11.160220745139483
3415 69 1 0.0 19.06132263999702 33.37163846338228 10.165564819013774
3416 69 1 0.0 19.224239943242942 33.38734867247118 9.01397114989697
3417 69 1 0.0 19.10202159354257 33.63455959275405 7.977757163902498
3418 69 1 0.0 18.488263894895614 33.96276072965966 7.324692822965145
3419 69 1 0.0 17.411453042637902 34.228654414707755 7.135111983956108
3420 69 1 0.0 16.213161860529674 34.298557013422155 7.239513409326956
3421 69 1 0.0 15.25670724304531 34.03945259226371 7.451044651140334
3422 69 1 0.0 14.873708853811559 33.3347416935112 7.59281103214484
3423 69 1 0.0 14.976109883907846 32.28518165935566 7.61976037249802
3424 69 1 0.0 15.178618611997342 31.145472293885113 7.580217642933121
3425 69 1 0.0 15.08965156316673 30.173571995635488 7.524484385563652
3426 69 1 0.0 14.40022101936747 29.593382366392877 7.495694202425128
3427 69 1 0.0 13.286753529369417 29.42865362424293 7.4948547981752265
3428 69 1 0.0 12.102429697200723 29.63025479865844 7.507634560723051
3429 69 1 0.0 11.200554017062181 30.148946945805058 7.51968511023945
3430 69 1 0.0 10.813661975616698 30.93278689036831 7.521586770461984
3431 69 1 0.0 10.83009237840987 31.922124285138622 7.517966874741549
3432 69 1 0.0 11.077268914863998 33.055944785818944 7.515938763031416
3433 69 1 0.0 11.383249920723708 34.2727056488838 7.522456745337178
3434 69 1 0.0 11.60870597168116 35.48371155489467 7.5363031425839395
3435 69 1 0.0 11.66194135564169 36.56060790345545 7.544324199650342
3436 69 1 0.0 11.455035133258585 37.3718972617927 7.532420277240003
3437 69 1 0.0 10.906711475134363 37.79649757617446 7.488739448995662
3438 69 1 0.0 10.036319117578163 37.87104321903209 7.435466116032412
3439 69 1 0.0 8.94128305019975 37.75454332836841 7.421194025001656
3440 69 1 0.0 7.721072517440926 37.60921115605215 7.495208393135639
3441 69 1 0.0 6.476665683951812 37.572240354181936 7.683979615951206
3442 69 1 0.0 5.318915329688206 37.617092310325994 7.864674244832065
3443 69 1 0.0 4.362645421500582 37.651381652114196 7.854414621728777
3444 69 1 0.0 3.7226697476884567 37.58256899224092 7.4701967371590206
3445 69 1 0.0 3.46168267209721 37.3810745524999 6.621406497336587
3446 69 1 0.0 3.477994706555367 37.21589218004022 5.508826161924578
3447 69 1 0.0 3.637588289735459 37.29506762770868 4.3905446086983915
3448 69 1 0.0 3.807165412241173 37.823762790660744 3.523228725234428
3449 69 1 0.0 3.900679406526515 38.817763176106425 3.0701665307854076
3450 69 1 0.0 3.907769695557146 39.989515637205706 3.0450739646789264
3451 70 1 0.0 3.824880916017782 41.02419273727276 3.448218392489549
3452 70 1 0.0 3.6529581376593647 41.62228063516477 4.272175669473815
3453 70 1 0.0 3.4714355503775653 41.75133992962037 5.375379032033338
3454 70 1 0.0 3.4264322536659235 41.605839545612355 6.502293202271567
3455 70 1 0.0 3.666187262113104 41.38746182999348 7.3937598401134315
3456 70 1 0.0 4.31186502108754 41.27462720399496 7.829213378878007
3457 70 1 0.0 5.286929833124594 41.27589610029414 7.86989501860034
3458 70 1 0.0 6.427165875464476 41.32449595045938 7.702027419930995
3459 70 1 0.0 7.567967102383578 41.353317675814544 7.51239110547558
3460 70 1 0.0 8.592279863974062 41.32071419220532 7.440223130652979
3461 70 1 0.0 9.549232836855973 41.27402096651745 7.458609427413388
3462 70 1 0.0 10.524235668985986 41.28000016070734 7.5043617686323305
3463 70 1 0.0 11.601669764560457 41.4043689969759 7.514797968516626
3464 70 1 0.0 12.776903452452721 41.62238628212073 7.471042861449386
3465 70 1 0.0 13.888797862182857 41.75026235504694 7.431244955187841
3466 70 1 0.0 14.760324273443342 41.58805969513128 7.461372810549157
3467 70 1 0.0 15.22364301484838 40.94829406729205 7.6208598587359715
3468 70 1 0.0 15.297017301788538 39.8956936698312 7.836785628276367
3469 70 1 0.0 15.171782873158163 38.72953997994485 7.9131427664129514
3470 70 1 0.0 15.045854138710734 37.75803009464717 7.649245257001522
3471 70 1 0.0 15.087736841188432 37.25208638263563 6.883290035276165
3472 70 1 0.0 15.225710515671205 37.1781506789664 5.771091422827772
3473 70 1 0.0 15.270731877419882 37.35396116502519 4.6235832336370715
3474 70 1 0.0 15.03296289471752 37.59624865606538 3.7527500488683008
3475 70 1 0.0 14.378715983762591 37.75327875872062 3.382923489508944
3476 70 1 0.0 13.391924403928776 37.79553565746659 3.398720858878999
3477 70 1 0.0 12.209235302672209 37.723108313325874 3.6024710992172118
3478 70 1 0.0 10.967113103476635 37.536572612733565 3.7971731977915892
3479 70 1 0.0 9.780319275235678 37.29433878082445 3.8654104275697723
3480 70 1 0.0 8.721681884536064 37.16656176310905 3.8435349806720778
3481 70 1 0.0 7.859241260257502 37.336154935887215 3.7854555843824715
3482 70 1 0.0 7.259996631008689 37.9762349311639 3.74364359600001
3483 70 1 0.0 6.9662235400999375 39.02726872219357 3.736436212902289
3484 70 1 0.0 6.995033521716792 40.19293018018488 3.7474285500719637
3485 70 1 0.0 7.362408936404283 41.16626766243848 3.75865675613437
3486 70 1 0.0 8.07455755032519 41.67351200834315 3.7545294420578035
3487 70 1 0.0 9.048091644291686 41.74504996100612 3.741201585644469
3488 70 1 0.0 10.151502487839322 41.57462794192618 3.7365079626184596
3489 70 1 0.0 11.252820309907326 41.3575574985576 3.7583952511944756
3490 70 1 0.0 12.254015356404993 41.25122248694518 3.8136913258351886
3491 70 1 0.0 13.202983025500489 41.24993659883359 3.8614187481226057
3492 70 1 0.0 14.18682870881491 41.3041966789345 3.8477548231759218
3493 70 1 0.0 15.292139229852252 41.36458827594434 3.7193061774983436
3494 70 1 0.0 16.516318125173907 41.39703493531269 3.496470367500434
3495 70 1 0.0 17.667171530295708 41.400067705770624 3.3565192812180342
3496 70 1 0.0 18.528245615570285 41.376389934241445 3.4967976863733004
3497 70 1 0.0 18.892258082651473 41.32928363481674 4.106479990451545
3498 70 1 0.0 18.810264637267004 41.27833035940823 5.144602962290577
3499 70 1 0.0 18.621102190309532 41.26126888249469 6.3138365723488725
3500 70 1 0.0 18.678689336665006 41.316789539977364 7.303415434745579
3501 71 1 0.0 19.296724634265246 41.47236913874656 7.831551976353044
3502 71 1 0.0 20.373690457793998 41.63972032759487 7.915614411099867
3503 71 1 0.0 21.56311391313767 41.66226111361282 7.749456815428161
3504 71 1 0.0 22.51535609744429 41.382526806272246 7.529214318096026
3505 71 1 0.0 22.95650665446841 40.68807633185343 7.416943227036437
3506 71 1 0.0 22.973966242735102 39.68128230852112 7.412105242386926
3507 71 1 0.0 22.762771919948023 38.528511451890786 7.465724299053714
3508 71 1 0.0 22.517774892012458 37.395887610139575 7.528865683384658
3509 71 1 0.0 22.379263955856974 36.38171911854738 7.565848063016618
3510 71 1 0.0 22.359721967939553 35.42546455544664 7.572034571764209
3511 71 1 0.0 22.453357176720687 34.44386902413207 7.547227303382423
3512 71 1 0.0 22.65226681277952 33.35685371185388 7.491863498015235
3513 71 1 0.0 22.877046585996265 32.19191579315392 7.42789320869219
3514 71 1 0.0 22.96109673534317 31.10774040583026 7.403501173128919
3515 71 1 0.0 22.73252889749961 30.270969534018928 7.468463321933737
3516 71 1 0.0 22.04108254670643 29.832278050138132 7.660344126927425
3517 71 1 0.0 20.989067605983088 29.755876481270274 7.874102327043325
3518 71 1 0.0 19.842288895876084 29.88527252017692 7.912384556619705
3519 71 1 0.0 18.86930079768549 30.061943950546226 7.576284999468362
3520 71 1 0.0 18.298732314521644 30.15236722169998 6.731509012853887
3521 71 1 0.0 18.147673877752432 30.155470428092908 5.586094474633694
3522 71 1 0.0 18.363421370792718 30.11388245416589 4.461027664121896
3523 71 1 0.0 18.893224669945837 30.070229699590755 3.677063522102185
3524 71 1 0.0 19.68312910399289 30.053445115762035 3.4157182518226894
3525 71 1 0.0 20.676066649288764 30.05706867070758 3.4986224950713445
3526 71 1 0.0 21.81447298385591 30.068998350382273 3.690037672594469
3527 71 1 0.0 23.039954494429733 30.07730794077056 3.758487230945636
3528 71 1 0.0 24.259779639898422 30.077350465943482 3.6489695618684186
3529 71 1 0.0 25.33535677457522 30.07420075442601 3.5421746072031137
3530 71 1 0.0 26.12489987767402 30.073610804809384 3.6352093498198794
3531 71 1 0.0 26.500919413199455 30.080635665051414 4.111582916668237
3532 71 1 0.0 26.525754174258427 30.091076291900755 4.974252480367834
3533 71 1 0.0 26.396456325265774 30.094166393523768 6.098044904543342
3534 71 1 0.0 26.312943447816497 30.078999989600565 7.355061660489777
3535 71 1 0.0 26.427251729334092 30.040064851141803 8.619349817208978
3536 71 1 0.0 26.60936565159531 30.003621357055994 9.776417245143207
3537 71 1 0.0 26.62634244166581 30.007524452923175 10.715954128847974
3538 71 1 0.0 26.245220512503288 30.089602535300784 11.327718881907241
3539 71 1 0.0 25.356951487870724 30.24679191675766 11.559816695517897
3540 71 1 0.0 24.206418333525598 30.359229497846748 11.527007737912081
3541 71 1 0.0 23.101286572636578 30.286333568134896 11.373614480577375
3542 71 1 0.0 22.345827402243827 29.889312098230047 11.242569953696233
3543 71 1 0.0 22.069006732960386 29.12180393764909 11.205047316217666
3544 71 1 0.0 22.143226296501318 28.07272310664441 11.227197152950437
3545 71 1 0.0 22.420499129306688 26.84173370073843 11.266824093042896
3546 71 1 0.0 22.75310246379885 25.530868599610617 11.284087500972838
3547 71 1 0.0 22.99732614927499 24.278137851123645 11.2749105353455
3548 71 1 0.0 23.01257965255513 23.24952202905621 11.26302099256934
3549 71 1 0.0 22.65835448118702 22.61173728527881 11.272877884563183
3550 71 1 0.0 21.835837954084177 22.481703010773206 11.321095453017753
3551 72 1 0.0 20.719725807054562 22.649691079884587 11.372829277093754
3552 72 1 0.0 19.594944202769618 22.774326613261206 11.372495865465712
3553 72 1 0.0 18.746687490181326 22.513928513795328 11.264475350642174
3554 72 1 0.0 18.369008741040354 21.671532914374435 11.04618314567602
3555 72 1 0.0 18.367864632628216 20.507625233875093 10.882678497171081
3556 72 1 0.0 18.592424865057538 19.37285919129143 10.972065100503091
3557 72 1 0.0 18.892100830355282 18.614810853134074 11.509653034082985
3558 72 1 0.0 19.13226520002657 18.377808810684805 12.50626254272826
3559 72 1 0.0 19.20390863043825 18.47996778554187 13.676606170697896
3560 72 1 0.0 19.000331387771528 18.709992428249343 14.708700636835902
3561 72 1 0.0 18.4224977617337 18.864886121026792 15.305688571104115
3562 72 1 0.0 17.505458015927694 18.88684276059525 15.43534808072572
3563 72 1 0.0 16.398407213719917 18.841654124377488 15.290736343393071
3564 72 1 0.0 15.25418376675093 18.79905706768065 15.072101141311254
3565 72 1 0.0 14.20554409561107 18.816931869065844 14.956867112639259
3566 72 1 0.0 13.238251067152888 18.866372574253678 14.955401005576926
3567 72 1 0.0 12.272738073171306 18.87990215636002 15.003822746081596
3568 72 1 0.0 11.229145610582435 18.789872450511375 15.037917068142546
3569 72 1 0.0 10.074392415264027 18.579597673155725 15.016402111730107
3570 72 1 0.0 8.939240964850669 18.410891005850708 14.97832172232331
3571 72 1 0.0 7.9903052045708725 18.4846238803786 14.980296214280369
3572 72 1 0.0 7.392922438980291 18.999677779974924 15.078095038800523
3573 72 1 0.0 7.201202653904751 19.981559920751472 15.253356194355886
3574 72 1 0.0 7.273291491700723 21.1503204169152 15.35711018451361
3575 72 1 0.0 7.447387084192424 22.19491643663269 15.227092775981514
3576 72 1 0.0 7.5669978245649965 22.81662296490251 14.709090616293807
3577 72 1 0.0 7.58354022866821 22.967021402812833 13.812489727225897
3578 72 1 0.0 7.548980689700325 22.830931195222153 12.699119677971991
3579 72 1 0.0 7.519121911613435 22.60207059063854 11.536626263819143
3580 72 1 0.0 7.540902852417208 22.456556309982524 10.473661077851496
3581 72 1 0.0 7.588679446810056 22.42637051802679 9.503336889010024
3582 72 1 0.0 7.601285361664212 22.47295565726595 8.542645473799114
3583 72 1 0.0 7.517311688450632 22.557272389253836 7.508058746792125
3584 72 1 0.0 7.318462950083338 22.64053507844023 6.358948031663593
3585 72 1 0.0 7.1539144726969415 22.684943578630858 5.221324102002804
3586 72 1 0.0 7.213499342869542 22.652936996022724 4.261653659864299
3587 72 1 0.0 7.6858286167852805 22.50755320698218 3.645548148099859
3588 72 1 0.0 8.613288212807491 22.283477447032 3.436280806187107
3589 72 1 0.0 9.755151197229981 22.154114521369028 3.4989834249835225
3590 72 1 0.0 10.838284994896165 22.308747343881574 3.676108144127702
3591 72 1 0.0 11.596051830527216 22.927022324989526 3.8140185732453937
3592 72 1 0.0 11.916603501109657 23.95892056167626 3.8522997879876306
3593 72 1 0.0 11.845947479157386 25.120208580346336 3.8256048797499953
3594 72 1 0.0 11.437199331675219 26.116106442772907 3.7728677644010276
3595 72 1 0.0 10.743972205547136 26.68048704636206 3.7305774000609095
3596 72 1 0.0 9.82445175981934 26.81052862919091 3.712754796438174
3597 72 1 0.0 8.73928455930923 26.645119196167965 3.721328813030903
3598 72 1 0.0 7.5491409111530645 26.324513939268783 3.758111646726345
3599 72 1 0.0 6.325251641542778 25.99179580342831 3.8174971182901345
3600 72 1 0.0 5.184355183120994 25.80223314493626 3.861911629147552
3601 73 1 0.0 4.25544538991492 25.914375911063335 3.8451725980697353
3602 73 1 0.0 3.667041014713639 26.485914056542683 3.721485024389417
3603 73 1 0.0 3.4652860449204304 27.52547542836209 3.512250606044045
3604 73 1 0.0 3.5208346432254762 28.724128448161835 3.382025765649318
3605 73 1 0.0 3.681831214133316 29.7322087721013 3.5137291199879086
3606 73 1 0.0 3.799708246901892 30.211895799041447 4.08318095253075
3607 73 1 0.0 3.8188725655286673 30.16026421829194 5.06548810200615
3608 73 1 0.0 3.787505417101967 29.94818612959326 6.211728679290998
3609 73 1 0.0 3.759244332110861 29.966187267416217 7.261201744194937
3610 73 1 0.0 3.7810979317020084 30.56186362161464 7.968648908581215
3611 73 1 0.0 3.8314602433775957 31.6384534709951 8.24865473574839
3612 73 1 0.0 3.848164180853127 32.836515644957544 8.110294010341756
3613 73 1 0.0 3.768515217667708 33.79319319650512 7.563870229296354
3614 73 1 0.0 3.565857067635513 34.225265614518655 6.648699919653259
3615 73 1 0.0 3.3858673270669217 34.2303316531519 5.542839127443508
3616 73 1 0.0 3.425677495766861 34.019691663947526 4.465767498733382
3617 73 1 0.0 3.8819279315382773 33.8043960194373 3.636712793026006
3618 73 1 0.0 4.81614944486761 33.722558499976536 3.204894347546096
3619 73 1 0.0 5.972721952843379 33.74108436787062 3.155196453530878
3620 73 1 0.0 7.050568504031903 33.80233976774688 3.448949451292845
3621 73 1 0.0 7.754410601826157 33.849662374867115 4.0471532338267355
3622 73 1 0.0 7.986189808182732 33.859434069262555 4.899568348236594
3623 73 1 0.0 7.888830382637689 33.84841336234088 5.942222012921832
3624 73 1 0.0 7.61991790852659 33.83581526911976 7.110305914183215
3625 73 1 0.0 7.334000839163235 33.83897354912457 8.335973656269598
3626 73 1 0.0 7.150062849640073 33.853192468943085 9.51580291693065
3627 73 1 0.0 7.164019423383344 33.85948742311625 10.523295951205373
3628 73 1 0.0 7.471396002006961 33.838632206946066 11.231564850055756
3629 73 1 0.0 8.141635717551763 33.78093454018311 11.547741314815681
3630 73 1 0.0 9.105671739186745 33.7273319964137 11.559618002330357
3631 73 1 0.0 10.248636655519297 33.73550373698704 11.414726063889383
3632 73 1 0.0 11.455662833221629 33.86299595924289 11.260535322332974
3633 73 1 0.0 12.625403071491508 34.10015432357 11.198046598165098
3634 73 1 0.0 13.69153140372216 34.263258628352794 11.207894605974161
3635 73 1 0.0 14.593317669852155 34.14077586319163 11.251481573005353
3636 73 1 0.0 15.269970588410967 33.52680384972956 11.290654368086654
3637 73 1 0.0 15.658156456947737 32.44966186610201 11.305755279255957
3638 73 1 0.0 15.691139298853404 31.25110493352976 11.301877211128337
3639 73 1 0.0 15.301945457119931 30.294784466314457 11.28584212839423
3640 73 1 0.0 14.440093545588944 29.912787048512662 11.26465909576019
3641 73 1 0.0 13.274712073487995 30.016884249289976 11.247828588323955
3642 73 1 0.0 12.131088156483552 30.219973095404097 11.246622655155656
3643 73 1 0.0 11.337846582669162 30.128562587092965 11.272351210248386
3644 73 1 0.0 11.143477409495967 29.43234639397581 11.329334792324248
3645 73 1 0.0 11.32333011630137 28.312166558493587 11.380626476798579
3646 73 1 0.0 11.479718225286755 27.128486852267866 11.374187090942902
3647 73 1 0.0 11.214891915494091 26.241904181528945 11.258014547920306
3648 73 1 0.0 10.316694546512027 25.884810200232927 11.037052708681957
3649 73 1 0.0 9.104237841943814 25.92260358105965 10.879255629001241
3650 73 1 0.0 7.991090759935552 26.15543322000949 10.981559877536114
3651 74 1 0.0 7.384750150805201 26.385030097567984 11.537142997697579
3652 74 1 0.0 7.377518404952887 26.49524894413509 12.544056891844857
3653 74 1 0.0 7.599479809517869 26.490375172578794 13.714210730867038
3654 74 1 0.0 7.643884027280773 26.384291437672495 14.736710684317584
3655 74 1 0.0 7.131101301785835 26.195471031024017 15.31853977754406
3656 74 1 0.0 6.09464597266065 26.01231917239535 15.439009917499817
3657 74 1 0.0 4.889867778670173 25.977717401610164 15.289574671009374
3658 74 1 0.0 3.8806174635001676 26.235986203574527 15.067291144157291
3659 74 1 0.0 3.375762909547809 26.901099288266924 14.944836907588959
3660 74 1 0.0 3.322653618833583 27.88749697172121 14.934591396135216
3661 74 1 0.0 3.5226260947156613 29.029030391760852 14.984191523193237
3662 74 1 0.0 3.776625819326242 30.1593467161783 15.04109875085843
3663 74 1 0.0 3.9287150929769297 31.16689976848277 15.066470439780192
3664 74 1 0.0 3.9595506011532655 32.113771245414604 15.064852654166865
3665 74 1 0.0 3.8767747385624713 33.09634492204617 15.049363369409297
3666 74 1 0.0 3.688904694377955 34.209288554562136 15.033049612672588
3667 74 1 0.0 3.4625570455369403 35.43330067484909 15.024246391741654
3668 74 1 0.0 3.3577865444378188 36.565789133306275 15.023710622607974
3669 74 1 0.0 3.543094602730808 37.387592600521586 15.031514174077044
3670 74 1 0.0 4.174472394495039 37.696450270417 15.047332533040198
3671 74 1 0.0 5.188345069989612 37.58672086056045 15.06388432403389
3672 74 1 0.0 6.333857295684122 37.40576693184168 15.06795426376675
3673 74 1 0.0 7.354151853793007 37.509059203316816 15.046136901625935
3674 74 1 0.0 8.015280207267592 38.19108736606738 14.990788778213624
3675 74 1 0.0 8.251382402882038 39.29890309630798 14.936544073531715
3676 74 1 0.0 8.071461189937738 40.48027970021202 14.936866433985925
3677 74 1 0.0 7.484865285320962 41.38208502740129 15.04530227762034
3678 74 1 0.0 6.540737598877922 41.757362609309254 15.267230165829705
3679 74 1 0.0 5.427915580240669 41.731877771771025 15.438938999772887
3680 74 1 0.0 4.36587319740102 41.51313774775295 15.359634495479227
3681 74 1 0.0 3.573092739682546 41.30764856006116 14.830549548210843
3682 74 1 0.0 3.1810990024679286 41.23412294808209 13.830674659038106
3683 74 1 0.0 3.167899274826416 41.25628061574411 12.652819220716287
3684 74 1 0.0 3.495833519385642 41.32202335447218 11.621819611959616
3685 74 1 0.0 4.126484207858111 41.38054040794159 11.04856931498275
3686 74 1 0.0 5.005989329683041 41.407270883759075 10.95968009526369
3687 74 1 0.0 6.0660672772332696 41.40216183056811 11.116346740508222
3688 74 1 0.0 7.237884232005422 41.366098849702695 11.269599666873596
3689 74 1 0.0 8.449367065980585 41.30356187329638 11.207808907394869
3690 74 1 0.0 9.601851107661913 41.248536752347256 11.025866005634965
3691 74 1 0.0 10.583630639603506 41.24947965410084 10.968987028664353
3692 74 1 0.0 11.282910174523247 41.35494635196783 11.283423041370177
3693 74 1 0.0 11.62265505566108 41.57177278243505 12.119971728916239
3694 74 1 0.0 11.661161210723987 41.74437155004057 13.257812449944382
3695 74 1 0.0 11.48965368323542 41.67763384049373 14.385701079284798
3696 74 1 0.0 11.19956799756952 41.17776455410216 15.193597835279892
3697 74 1 0.0 10.907713163673675 40.209337004738906 15.516646655372368
3698 74 1 0.0 10.780126423888607 39.04418213724779 15.471668893490282
3699 74 1 0.0 10.988493939778424 37.9893885820287 15.20780827013034
3700 74 1 0.0 11.69410088220793 37.3423199660986 14.874016609610605
3701 75 1 0.0 12.809456541564154 37.167732624607325 14.614655871482997
3702 75 1 0.0 13.99286838850593 37.29270230743021 14.569398043050112
3703 75 1 0.0 14.891157556775697 37.53356495430153 14.877703191017138
3704 75 1 0.0 15.20003812261794 37.71889840254416 15.651345197771619
3705 75 1 0.0 15.06567113330741 37.79006416348658 16.747027229417675
3706 75 1 0.0 14.877144216009109 37.74924811615341 17.883892515545963
3707 75 1 0.0 15.025905027145726 37.59922704768418 18.77974789236163
3708 75 1 0.0 15.787054199208042 37.368959314819044 19.217464557138097
3709 75 1 0.0 16.93319394458634 37.200480488613664 19.260924235282555
3710 75 1 0.0 18.101296251654542 37.26634700804122 19.049856693423234
3711 75 1 0.0 18.929292494424022 37.7383776221724 18.72400682211679
3712 75 1 0.0 19.22322813225139 38.659324733751184 18.425558490263782
3713 75 1 0.0 19.14804657727363 39.79640376493955 18.30190241384576
3714 75 1 0.0 18.914838975574526 40.88140110528885 18.501098814457162
3715 75 1 0.0 18.730435123895464 41.651181220951884 19.16395944698194
3716 75 1 0.0 18.680704295545066 41.986752311488374 20.225544728658335
3717 75 1 0.0 18.716238729584102 41.930326713207734 21.39081165157953
3718 75 1 0.0 18.780494777588224 41.53262030914766 22.352579211458885
3719 75 1 0.0 18.82099714117533 40.84518019053654 22.834239232473024
3720 75 1 0.0 18.827492272401177 39.928179811728455 22.876471461442407
3721 75 1 0.0 18.814736425664726 38.84690240188654 22.707899255979484
3722 75 1 0.0 18.797813048579577 37.6666980393074 22.559604764587274
3723 75 1 0.0 18.78919415884947 36.45946482760073 22.604081331639048
3724 75 1 0.0 18.78883561329595 35.32848449586232 22.733015646264413
3725 75 1 0.0 18.792947954459738 34.38642995486452 22.75406630096297
3726 75 1 0.0 18.797744875162863 33.745773608616304 22.475179876631472
3727 75 1 0.0 18.800486977102334 33.4637812056969 21.7871162595005
3728 75 1 0.0 18.80089756180794 33.46785292152265 20.775441510506525
3729 75 1 0.0 18.79905374978601 33.66673099213142 19.553709722439777
3730 75 1 0.0 18.795075473112494 33.96813686969621 18.23609589798237
3731 75 1 0.0 18.790544904274537 34.24492686519563 16.957982380410826
3732 75 1 0.0 18.788834449649666 34.32727158835199 15.880715847979516
3733 75 1 0.0 18.793425769242493 34.042736644194186 15.1672275192583
3734 75 1 0.0 18.80694771357818 33.244670733868745 14.955895539961574
3735 75 1 0.0 18.822015375557083 32.08916975067052 15.096793895927076
3736 75 1 0.0 18.82473562963857 30.929093373550764 15.252619714051395
3737 75 1 0.0 18.80110471529788 30.120646122834074 15.082884850791913
3738 75 1 0.0 18.74534579503808 29.92618585970467 14.332406649294292
3739 75 1 0.0 18.695471238237573 30.10855552856791 13.200055516231643
3740 75 1 0.0 18.704004997904523 30.265060650194748 12.035173389365703
3741 75 1 0.0 18.82334983631013 29.993323735867765 11.186907324083151
3742 75 1 0.0 19.04395476883068 29.092334113541384 10.865597263784737
3743 75 1 0.0 19.195446883147312 27.883796866939594 10.921262292424823
3744 75 1 0.0 19.08169641140702 26.773133985807203 11.146213366368054
3745 75 1 0.0 18.51147240164517 26.158227115009677 11.33533302106667
3746 75 1 0.0 17.498252681979547 26.121866490268914 11.390963396481276
3747 75 1 0.0 16.330000526617628 26.324349448061266 11.359534724291104
3748 75 1 0.0 15.313910801354874 26.396371715734883 11.29757264695904
3749 75 1 0.0 14.736812676629963 25.99320087681715 11.258489807298805
3750 75 1 0.0 14.613571203039415 25.09823783520771 11.254127755417663
3751 76 1 0.0 14.765279963849066 23.928674904516086 11.2667090915521
3752 76 1 0.0 15.008870910779075 22.70672553856097 11.277820289485991
3753 76 1 0.0 15.1814462418481 21.61973409887463 11.272957683196028
3754 76 1 0.0 15.239476292641521 20.648688587075544 11.260756279457299
3755 76 1 0.0 15.183181471617573 19.698944545667754 11.258331728554532
3756 76 1 0.0 15.012890847656273 18.675802211688527 11.282796738270509
3757 76 1 0.0 14.770392533561996 17.541986006669408 11.335918774219158
3758 76 1 0.0 14.61641303032757 16.42495979860373 11.375442618489656
3759 76 1 0.0 14.732874371025693 15.481545010059214 11.351267947691783
3760 76 1 0.0 15.298130596428315 14.866617221512609 11.21501091665566
3761 76 1 0.0 16.304384581974073 14.63353251942195 11.00784068202978
3762 76 1 0.0 17.470311283485035 14.686475665159566 10.902514329224365
3763 76 1 0.0 18.49272688839201 14.917710511072235 11.08230468939878
3764 76 1 0.0 19.085431631908317 15.217995691451161 11.715006144956247
3765 76 1 0.0 19.22173108597339 15.455091075909639 12.731912327272296
3766 76 1 0.0 19.077483063447854 15.47880526036912 13.879720443984695
3767 76 1 0.0 18.833919134492582 15.138470589352366 14.900230317368235
3768 76 1 0.0 18.654913856677823 14.325918247560836 15.560388080495322
3769 76 1 0.0 18.589947791958163 13.213074402154955 15.792870400535689
3770 76 1 0.0 18.64220007239957 12.085234791159769 15.5974340450054
3771 76 1 0.0 18.814703844154096 11.227982241619364 14.974045255071962
3772 76 1 0.0 19.069595345127944 10.837844540916327 13.976471887746234
3773 76 1 0.0 19.23916130510362 10.828595752698549 12.829304330474415
3774 76 1 0.0 19.129976732123325 11.058021395330087 11.790957830210644
3775 76 1 0.0 18.55152876159865 11.383910581603597 11.117458466481477
3776 76 1 0.0 17.507814670269767 11.664292507522724 10.905252315832685
3777 76 1 0.0 16.31628353594103 11.757583261590705 10.993623339734926
3778 76 1 0.0 15.322796147471097 11.522234000789625 11.198545964722728
3779 76 1 0.0 14.853109642611727 10.829150290008458 11.342934748243076
3780 76 1 0.0 14.879025162752454 9.768516885558418 11.371896029668136
3781 76 1 0.0 15.069839796470816 8.617922754400457 11.334965822207115
3782 76 1 0.0 15.085117027333382 7.660986926718773 11.285040349245223
3783 76 1 0.0 14.627906468245795 7.1446882718543865 11.268111506190625
3784 76 1 0.0 13.721100133228411 7.046515658546799 11.2793895513674
3785 76 1 0.0 12.530341124585972 7.223679997599848 11.2914200371903
3786 76 1 0.0 11.22193220244292 7.532835767470463 11.276644757437278
3787 76 1 0.0 9.949648871185907 7.832209391030285 11.223549490684896
3788 76 1 0.0 8.823191911921068 7.985557873151824 11.177067668929507
3789 76 1 0.0 7.942574145285918 7.857853882829628 11.19454034908736
3790 76 1 0.0 7.406884067030187 7.315576436737921 11.332317040226242
3791 76 1 0.0 7.233634216306835 6.358146717661766 11.559238556992229
3792 76 1 0.0 7.296026410037097 5.220165252977763 11.689339770949477
3793 76 1 0.0 7.4524965593626975 4.160296173859711 11.520815774508286
3794 76 1 0.0 7.56590866412596 3.429734337124423 10.864609819928988
3795 76 1 0.0 7.589714985077177 3.1268708460759913 9.792462471491975
3796 76 1 0.0 7.562110820211524 3.2071527399072504 8.62008361250904
3797 76 1 0.0 7.524548880802042 3.6205324719718934 7.6725609928993
3798 76 1 0.0 7.513542682904283 4.316329010665012 7.231825911494894
3799 76 1 0.0 7.524959418554106 5.238648160348372 7.2246604945984085
3800 76 1 0.0 7.534690988185058 6.329033760082773 7.403311816335663
3801 77 1 0.0 7.518490643085908 7.529011857513613 7.518815478332327
3802 77 1 0.0 7.465741107353664 8.766036138069675 7.40676123838432
3803 77 1 0.0 7.419007050232513 9.912650195944261 7.232667572639187
3804 77 1 0.0 7.433822785384926 10.828006532613498 7.242513687827989
3805 77 1 0.0 7.565065638815673 11.372133687186595 7.680837031228232
3806 77 1 0.0 7.78782024039157 11.51145702955323 8.617069973724853
3807 77 1 0.0 7.922041832616007 11.419253884424428 9.780213436462066
3808 77 1 0.0 7.7698399170728285 11.292597366961207 10.86010586108175
3809 77 1 0.0 7.143366910702843 11.320281160387191 11.555565773325041
3810 77 1 0.0 6.095850894485954 11.492354909833177 11.780974576923676
3811 77 1 0.0 4.927337277326616 11.595390764605359 11.671410583183725
3812 77 1 0.0 3.949062915703563 11.406734586105733 11.371959171763134
3813 77 1 0.0 3.4389647762750513 10.735899329045266 11.028329252861505
3814 77 1 0.0 3.367408042663134 9.689506746301005 10.791988926914533
3815 77 1 0.0 3.538543417110015 8.534738783604679 10.81751861112803
3816 77 1 0.0 3.754895619160441 7.540348056663748 11.259529168750937
3817 77 1 0.0 3.857659870707985 6.933312165492582 12.196728754811717
3818 77 1 0.0 3.8554254346031356 6.75977607894336 13.379263434978549
3819 77 1 0.0 3.8020649892261456 7.0169659445569454 14.46839669860523
3820 77 1 0.0 3.751332832428555 7.701684682750063 15.12653321660935
3821 77 1 0.0 3.735966788845193 8.736225284841463 15.217641406468397
3822 77 1 0.0 3.7437436654429974 9.883479961439207 15.036899578816017
3823 77 1 0.0 3.756644975398179 10.8857948055894 14.93506725987931
3824 77 1 0.0 3.7572260790817174 11.492510363756033 15.253944644633178
3825 77 1 0.0 3.74439438093408 11.652277402213505 16.080031595825893
3826 77 1 0.0 3.735380669269071 11.53708498378025 17.213749613740084
3827 77 1 0.0 3.748385449562072 11.330741766415374 18.440380249642477
3828 77 1 0.0 3.797477176427748 11.203661188064421 19.562078939213368
3829 77 1 0.0 3.8537283112933673 11.186872925956092 20.55658206902536
3830 77 1 0.0 3.862691211258198 11.228675968911734 21.505841415335656
3831 77 1 0.0 3.7695823412444356 11.276280415571314 22.493180423328216
3832 77 1 0.0 3.554915429198647 11.28795840089201 23.574053958829246
3833 77 1 0.0 3.368762721873494 11.275121094765543 24.670043758928824
3834 77 1 0.0 3.412048226709937 11.265116427481855 25.66258209283337
3835 77 1 0.0 3.8851913402014766 11.285213117524417 26.433176638607023
3836 77 1 0.0 4.846712439880309 11.33998959926257 26.88624088621387
3837 77 1 0.0 6.020625069417602 11.380535176879828 26.980185532027715
3838 77 1 0.0 7.0827690480713255 11.350235961811974 26.68119763534578
3839 77 1 0.0 7.716117237945173 11.195676552207043 25.959062011780162
3840 77 1 0.0 7.848297837062295 10.97314603810932 24.906962466536502
3841 77 1 0.0 7.707063912904391 10.873510775925654 23.769459456807827
3842 77 1 0.0 7.5385409065590805 11.095875372431854 22.800380077405986
3843 77 1 0.0 7.565441382781254 11.814354641138006 22.234801682869648
3844 77 1 0.0 7.734808087770156 12.908826511648 22.087036890182297
3845 77 1 0.0 7.814158457145666 14.067552115457305 22.227629011865385
3846 77 1 0.0 7.567941730821825 14.975517737549382 22.52466425641919
3847 77 1 0.0 6.823118585281929 15.382631679849045 22.843879405115764
3848 77 1 0.0 5.7401406397228 15.385153341306086 23.038477329526206
3849 77 1 0.0 4.590221121388064 15.19437494348251 22.957498041558562
3850 77 1 0.0 3.6445064758044636 15.021501105023278 22.45021772483498
3851 78 1 0.0 3.1066744057061775 14.998893567691024 21.480789530738377
3852 78 1 0.0 3.0048863211437737 15.053808584659029 20.312212841689547
3853 78 1 0.0 3.3391275263129505 15.080576269484743 19.25546163500576
3854 78 1 0.0 4.106758946786359 14.976593981003608 18.61614599185364
3855 78 1 0.0 5.194970522124887 14.768021533898718 18.474700508872967
3856 78 1 0.0 6.342935320508397 14.654013617060603 18.609032121484827
3857 78 1 0.0 7.27942534941847 14.845881170014632 18.775789319793255
3858 78 1 0.0 7.754180505257951 15.533159238094255 18.75152967373697
3859 78 1 0.0 7.797748528904805 16.613753989144723 18.57943872973135
3860 78 1 0.0 7.6411481382891795 17.777375391516042 18.493049889516865
3861 78 1 0.0 7.519724352239563 18.70924039707248 18.73000439183569
3862 78 1 0.0 7.616078112470039 19.150855853739856 19.47088100381104
3863 78 1 0.0 7.7999438721004015 19.177628131188783 20.55777621923662
3864 78 1 0.0 7.826136696061193 18.987608657461717 21.708458177221317
3865 78 1 0.0 7.449425464701375 18.7789792513735 22.6405788694043
3866 78 1 0.0 6.553671241826204 18.69259968192972 23.145802948293245
3867 78 1 0.0 5.393888825035323 18.704522738764663 23.228589324686958
3868 78 1 0.0 4.2913874090708095 18.761363869659625 22.93140559900015
3869 78 1 0.0 3.563737274514153 18.81024047486171 22.297231566342095
3870 78 1 0.0 3.3324458950965736 18.82459155633522 21.39590570990671
3871 78 1 0.0 3.4303526358937106 18.816610059776046 20.33681122213718
3872 78 1 0.0 3.667163624259074 18.801594588090303 19.232500322921265
3873 78 1 0.0 3.859758150856872 18.794036609243634 18.18922287794629
3874 78 1 0.0 3.9349464066026134 18.796058003784733 17.2166432659637
3875 78 1 0.0 3.905512939596834 18.80010669048831 16.248888640668312
3876 78 1 0.0 3.786533222162049 18.79837280994868 15.218073345610057
3877 78 1 0.0 3.604246690830035 18.785353846559047 14.078352388620711
3878 78 1 0.0 3.4586445303186446 18.77079013533867 12.929486540100596
3879 78 1 0.0 3.479633215619137 18.770604838321532 11.930297389482122
3880 78 1 0.0 3.7971866688327607 18.800733385308913 11.239752618021495
3881 78 1 0.0 4.491373335515117 18.862176757943832 10.954028870204096
3882 78 1 0.0 5.483457461301163 18.908413035471717 10.96949545380313
3883 78 1 0.0 6.663186463967945 18.88348873843208 11.14286722513633
3884 78 1 0.0 7.920288888125267 18.732864986693766 11.331570260814473
3885 78 1 0.0 9.143225482294234 18.497027954074348 11.440806530812523
3886 78 1 0.0 10.218409825271944 18.369905219944428 11.452923977928645
3887 78 1 0.0 11.032069439076944 18.55936986743004 11.357281947455167
3888 78 1 0.0 11.477851782981315 19.25699714232296 11.14897235760267
3889 78 1 0.0 11.580458541171582 20.366502654043448 10.92433837371839
3890 78 1 0.0 11.476815831138369 21.545101873728132 10.866426690463475
3891 78 1 0.0 11.307475323504638 22.442046771859566 11.1610850703502
3892 78 1 0.0 11.198937835105411 22.766173359355747 11.951904127541713
3893 78 1 0.0 11.174109927228196 22.66561937248268 13.070920609737268
3894 78 1 0.0 11.209564685791062 22.48500424973452 14.210825957105506
3895 78 1 0.0 11.281658451936012 22.569858818127024 15.063666872711783
3896 78 1 0.0 11.362535935741098 23.166270988517695 15.416598011976175
3897 78 1 0.0 11.409490766155953 24.169672407449465 15.392144316789855
3898 78 1 0.0 11.376544796515496 25.39824319985961 15.186714664871708
3899 78 1 0.0 11.218682277201319 26.67069025592336 14.995771632085795
3900 78 1 0.0 10.976374753104363 27.852511689116096 14.930720194873606
3901 79 1 0.0 10.841632540186497 28.89214992078477 14.953960902895492
3902 79 1 0.0 11.022011606096951 29.74655623975085 15.012608640616428
3903 79 1 0.0 11.711407894000363 30.37201394611782 15.055416902692286
3904 79 1 0.0 12.823323306549758 30.711094793932684 15.064774301546867
3905 79 1 0.0 14.008442908076086 30.69351853376708 15.054596065834355
3906 79 1 0.0 14.907311798168122 30.248509061881396 15.040013779975776
3907 79 1 0.0 15.21595405134059 29.335043185340165 15.034452030691792
3908 79 1 0.0 15.088080277629597 28.157551176871568 15.037253135434769
3909 79 1 0.0 14.902795262982862 27.041340322894317 15.040824399961602
3910 79 1 0.0 15.04078094515464 26.312563699216316 15.03752460375792
3911 79 1 0.0 15.764360458061283 26.176282432498997 15.0236456743604
3912 79 1 0.0 16.872980451059153 26.363992406151723 15.010861257302938
3913 79 1 0.0 18.052949523822846 26.49143886641189 15.014604656760635
3914 79 1 0.0 18.991445122200723 26.1762824096322 15.050130560780227
3915 79 1 0.0 19.48196057774922 25.270554398222405 15.110837392855785
3916 79 1 0.0 19.525111200546604 24.082881523217324 15.147543742554724
3917 79 1 0.0 19.14539895791087 22.974548026488044 15.106157615325575
3918 79 1 0.0 18.371079716503825 22.295595299413012 14.937594531072033
3919 79 1 0.0 17.320844766041304 22.125212521570973 14.713406352513966
3920 79 1 0.0 16.20615650572953 22.264741328420833 14.628896974373442
3921 79 1 0.0 15.24269846662158 22.502881153293334 14.885001070681065
3922 79 1 0.0 14.629621903918112 22.6459789474211 15.648341387181718
3923 79 1 0.0 14.412989314989847 22.663797553354584 16.76781245567041
3924 79 1 0.0 14.555962835403992 22.61459250707738 17.920253169994208
3925 79 1 0.0 15.020888020668332 22.557491009875235 18.78080765210325
3926 79 1 0.0 15.765902904007332 22.538675122499203 19.112690277512357
3927 79 1 0.0 16.730891124251634 22.54816423204553 19.061209451255014
3928 79 1 0.0 17.850787018915465 22.560750378788455 18.875270468032653
3929 79 1 0.0 19.060423474033566 22.55133505929811 18.802968929443857
3930 79 1 0.0 20.276594892682404 22.51434854365951 18.947967561384175
3931 79 1 0.0 21.377424624260318 22.48608705325368 19.104292658401874
3932 79 1 0.0 22.236039302078222 22.50825634068911 19.025962157592804
3933 79 1 0.0 22.729895463543528 22.619671992555475 18.47576304082883
3934 79 1 0.0 22.860311098004097 22.776473362614478 17.467330020834176
3935 79 1 0.0 22.76767086675188 22.84197424535865 16.295939584650924
3936 79 1 0.0 22.59974316611281 22.67455986882747 15.271821969256715
3937 79 1 0.0 22.493733390760593 22.146248388488026 14.679497250105634
3938 79 1 0.0 22.47664353820719 21.271289776608292 14.53525235885035
3939 79 1 0.0 22.50993210056338 20.14852642359249 14.69584247982435
3940 79 1 0.0 22.55418968273915 18.87792084114971 15.015910375073823
3941 79 1 0.0 22.57679260690249 17.56860547908635 15.348964855434675
3942 79 1 0.0 22.577788036478292 16.373862812979752 15.54305515561226
3943 79 1 0.0 22.567043230665675 15.460245790324256 15.444589488580966
3944 79 1 0.0 22.5544177635283 14.993818703601555 14.900448217644366
3945 79 1 0.0 22.54709072424665 15.003621004005971 13.889297125533714
3946 79 1 0.0 22.545908890511832 15.194988031492606 12.701128625020283
3947 79 1 0.0 22.550804921276523 15.226525903316274 11.670877565266403
3948 79 1 0.0 22.56159288120988 14.765435432159641 11.125124607480396
3949 79 1 0.0 22.574002049453558 13.774947614044917 11.102704115004702
3950 79 1 0.0 22.578740904973785 12.582157933460199 11.288768072240815
3951 80 1 0.0 22.56620962792553 11.536504725699768 11.346750838274067
3952 80 1 0.0 22.52913683021094 10.96048213533408 10.964225959430822
3953 80 1 0.0 22.48774198932738 10.858464986179467 10.113768744631445
3954 80 1 0.0 22.480183495770735 11.027242247818801 8.953929797239544
3955 80 1 0.0 22.544927969968512 11.260036108857431 7.646455184710763
3956 80 1 0.0 22.697960553042222 11.38201443607067 6.347262617842954
3957 80 1 0.0 22.83505527521349 11.389162390278273 5.181104899713675
3958 80 1 0.0 22.811972622839207 11.334323481224864 4.262361263162539
3959 80 1 0.0 22.484577369694797 11.270350443910582 3.70524662558006
3960 80 1 0.0 21.77279492484288 11.235790210664103 3.547320293723168
3961 80 1 0.0 20.763561092006228 11.231893521864265 3.6262952298998226
3962 80 1 0.0 19.570685074693152 11.253909841868179 3.7477274116897115
3963 80 1 0.0 18.30797618673827 11.296808404888692 3.7213389037288573
3964 80 1 0.0 17.08924839467174 11.343740141352507 3.5325505077313206
3965 80 1 0.0 16.028321928428603 11.361946340325325 3.403306298549709
3966 80 1 0.0 15.239017459357088 11.317547057619365 3.5722193477205955
3967 80 1 0.0 14.824509870355088 11.183844877776465 4.254236071230365
3968 80 1 0.0 14.744993889559169 11.030608614622823 5.346443659346581
3969 80 1 0.0 14.858386310946402 10.996612229332314 6.518555195673914
3970 80 1 0.0 15.020386069139176 11.222126034299098 7.435353240010559
3971 80 1 0.0 15.106707596217802 11.820861891219305 7.82595800836472
3972 80 1 0.0 15.112068953595367 12.748626417157396 7.802014038617085
3973 80 1 0.0 15.074994651944644 13.903099698707795 7.615976971558325
3974 80 1 0.0 15.034066507187474 15.181859325299941 7.520408575346108
3975 80 1 0.0 15.0168022340729 16.470430676019067 7.653423719981665
3976 80 1 0.0 15.018839317582037 17.619611750911243 7.823368652375732
3977 80 1 0.0 15.030107756529102 18.473983341524228 7.779551467322583
3978 80 1 0.0 15.040622925913054 18.881428195819144 7.275462886160537
3979 80 1 0.0 15.044900065675312 18.863863049651457 6.285044504406845
3980 80 1 0.0 15.044092930430796 18.69995171842345 5.107462425808488
3981 80 1 0.0 15.039888758281682 18.68899069428478 4.068018405430675
3982 80 1 0.0 15.034031636819213 19.11317505209018 3.4737035066517095
3983 80 1 0.0 15.029139512029708 19.991826491335807 3.350047131114833
3984 80 1 0.0 15.028515105860203 21.13827296109023 3.5020187122966355
3985 80 1 0.0 15.035479467087708 22.36032934824951 3.7286847821791027
3986 80 1 0.0 15.051581351991317 23.488756942159 3.8537767017320927
3987 80 1 0.0 15.066633645363337 24.50626487965485 3.8643528581206485
3988 80 1 0.0 15.065678712576965 25.457327643076564 3.813862511229641
3989 80 1 0.0 15.033750341778024 26.386596100621674 3.755942044344861
3990 80 1 0.0 14.970711833664557 27.332278085424818 3.730282077033957
3991 80 1 0.0 14.923720359024795 28.312033481922835 3.732097786042197
3992 80 1 0.0 14.949340601922726 29.339434856266312 3.7477574654638013
3993 80 1 0.0 15.102711224991817 30.427455749063576 3.763706697935577
3994 80 1 0.0 15.342630146983463 31.54860006647314 3.771612611527257
3995 80 1 0.0 15.472015228617074 32.609891537594855 3.771590834624106
3996 80 1 0.0 15.279579166846858 33.51238676109388 3.764526897368389
3997 80 1 0.0 14.570745152788676 34.158779838485685 3.7515737779810614
3998 80 1 0.0 13.447022637060252 34.48077909961781 3.738623255371283
3999 80 1 0.0 12.26396513559134 34.434987283591006 3.7356330323230695
4000 80 1 0.0 11.385366352977139 33.97881460607003 3.7526926941731675
4001 81 1 0.0 11.110328830262313 33.096286094284046 3.795511371275804
4002 81 1 0.0 11.259846977850923 31.968126867171527 3.8374238938803695
4003 81 1 0.0 11.440625726876291 30.863223606977336 3.8372548351066467
4004 81 1 0.0 11.258368144962095 30.05087349732019 3.7537626351332354
4005 81 1 0.0 10.461433867057297 29.714883484083273 3.582610110313145
4006 81 1 0.0 9.302348808204307 29.736927243367457 3.449884791430338
4007 81 1 0.0 8.144961089951417 29.931966051853966 3.5104725791050475
4008 81 1 0.0 7.350952168617704 30.11583146378388 3.918098020494162
4009 81 1 0.0 7.088291201855283 30.182162838889692 4.7226540018791585
4010 81 1 0.0 7.180862635353976 30.16280695339127 5.789600684462985
4011 81 1 0.0 7.417161498268207 30.103825338364977 6.965429160778226
4012 81 1 0.0 7.592132827032269 30.050193618443526 8.101137076957395
4013 81 1 0.0 7.633565433570798 30.024522185858476 9.140538655791973
4014 81 1 0.0 7.594008856134206 30.02841704156675 10.114617153590626
4015 81 1 0.0 7.53084403303565 30.062670784581258 11.05773147608651
4016 81 1 0.0 7.495816734200563 30.124337317993845 12.00287391182413
4017 81 1 0.0 7.4940688710712084 30.179550855609232 12.97173457879944
4018 81 1 0.0 7.507743889813271 30.17918710209649 13.980426104531906
4019 81 1 0.0 7.518823009709683 30.07401414299919 15.045021767631857
4020 81 1 0.0 7.514851039238095 29.85653033899395 16.162083181306
4021 81 1 0.0 7.50517994312551 29.682800877547226 17.25169364212942
4022 81 1 0.0 7.504503912684988 29.748960868159124 18.215201106233163
4023 81 1 0.0 7.527375965390526 30.249855549887076 18.954086923259275
4024 81 1 0.0 7.570944286088326 31.2213065118904 19.38627806578845
4025 81 1 0.0 7.5983792621089865 32.388688613272706 19.461806730167435
4026 81 1 0.0 7.568922910606874 33.44148416668462 19.134416983812237
4027 81 1 0.0 7.445513134151958 34.07908231726413 18.364301425942276
4028 81 1 0.0 7.2804470239033385 34.24039979629577 17.267565381640484
4029 81 1 0.0 7.217868740673895 34.11054969423751 16.12056772370057
4030 81 1 0.0 7.406116024533489 33.88588600393741 15.206984226329245
4031 81 1 0.0 7.975561840839956 33.74672872756986 14.776495805394603
4032 81 1 0.0 8.8898006176784 33.724544037841646 14.763187281650898
4033 81 1 0.0 10.021927778851287 33.77002558378631 14.929891629965315
4034 81 1 0.0 11.244141170447396 33.833065904881934 15.037743333144842
4035 81 1 0.0 12.438727857202363 33.8718551871574 14.922281755701004
4036 81 1 0.0 13.531846095681743 33.88066447249775 14.742582796921468
4037 81 1 0.0 14.461575701522095 33.86356941571152 14.745640184393054
4038 81 1 0.0 15.166017191256527 33.82469410718977 15.177522283897694
4039 81 1 0.0 15.58694548965456 33.776824360268606 16.11783524838711
4040 81 1 0.0 15.674029271872893 33.75135401286505 17.2885735907521
4041 81 1 0.0 15.377959660106333 33.782087128544674 18.365411767535594
4042 81 1 0.0 14.654266880051996 33.900112285911916 19.03226108436902
4043 81 1 0.0 13.597446899339682 34.05853680480314 19.209572496121897
4044 81 1 0.0 12.458327712316848 34.12274157651601 19.083896517517143
4045 81 1 0.0 11.496064778154995 33.9534344975495 18.855958204291607
4046 81 1 0.0 10.947488456169207 33.4247035373571 18.712166345471058
4047 81 1 0.0 10.815896643345129 32.550599371218176 18.689173937805442
4048 81 1 0.0 10.965412005717658 31.42858438391248 18.734386013251964
4049 81 1 0.0 11.258303231454484 30.157232102357327 18.79401871584348
4050 81 1 0.0 11.557486061321681 28.84489892722682 18.82365605797932
4051 82 1 0.0 11.728998648571622 27.64714942621357 18.824087571981426
4052 82 1 0.0 11.639819767042237 26.733769533971408 18.80972086365108
4053 82 1 0.0 11.15728943271006 26.274048841249435 18.794948854338372
4054 82 1 0.0 10.250550176358965 26.296513777820326 18.789245147559924
4055 82 1 0.0 9.1297522871827 26.49644739575801 18.790437330364572
4056 82 1 0.0 8.039920394945671 26.52091171423918 18.79466778619079
4057 82 1 0.0 7.223078048907948 26.02619174159694 18.798139257978367
4058 82 1 0.0 6.817445244643941 24.9875839387401 18.799142246969218
4059 82 1 0.0 6.833400325822323 23.773270651731327 18.798538481118
4060 82 1 0.0 7.273447455798949 22.775633337461777 18.79734805853859
4061 82 1 0.0 8.127657231498686 22.350392362514366 18.796531074899647
4062 82 1 0.0 9.238898782661213 22.419236047031173 18.796337254632707
4063 82 1 0.0 10.353793416406942 22.62006043507274 18.79655184524439
4064 82 1 0.0 11.217299849550459 22.58585932694702 18.796952070840756
4065 82 1 0.0 11.626303056622582 22.022409072265937 18.79732666457468
4066 82 1 0.0 11.655980931695389 21.025555881813204 18.797526041036807
4067 82 1 0.0 11.474348450280354 19.82127125855366 18.797421191427052
4068 82 1 0.0 11.249404425228724 18.63544716252684 18.796883556309638
4069 82 1 0.0 11.109365740847046 17.610104972570653 18.795999572160813
4070 82 1 0.0 11.078510925199335 16.668137164874647 18.79541739587887
4071 82 1 0.0 11.164354795641337 15.697093983324498 18.79587578151024
4072 82 1 0.0 11.372445271544125 14.587741012140631 18.79807938908774
4073 82 1 0.0 11.624995573712026 13.367073278918719 18.80128836328607
4074 82 1 0.0 11.731812147118548 12.245840150885485 18.802814400932462
4075 82 1 0.0 11.494756400003627 11.447778957667264 18.79983148037936
4076 82 1 0.0 10.738636825623857 11.172732337988853 18.790063901473374
4077 82 1 0.0 9.597341348954552 11.298699982750684 18.77864836762141
4078 82 1 0.0 8.426291728350758 11.472999451783688 18.77603445007847
4079 82 1 0.0 7.5857366899763194 11.337922006212509 18.792787481388377
4080 82 1 0.0 7.353674844152868 10.61382856831381 18.834015022559345
4081 82 1 0.0 7.51794336427373 9.486328490700828 18.872299584501967
4082 82 1 0.0 7.685553675833731 8.312666201775377 18.868224842505846
4083 82 1 0.0 7.463397909124041 7.450229743085192 18.78239663049089
4084 82 1 0.0 6.630041169647375 7.124729205086639 18.61776616592705
4085 82 1 0.0 5.459794256468273 7.181623930509161 18.499566822292316
4086 82 1 0.0 4.315925459757469 7.398140389966253 18.574974501153225
4087 82 1 0.0 3.5575652969314917 7.553897310364003 18.989205088265816
4088 82 1 0.0 3.3246407491856615 7.55524610057786 19.78364025180047
4089 82 1 0.0 3.4330474644137974 7.495877117656433 20.846171709236447
4090 82 1 0.0 3.6725685948158633 7.48457767679667 22.052321986356553
4091 82 1 0.0 3.842104665440477 7.619002456198096 23.2793613652773
4092 82 1 0.0 3.881125702756256 7.8251657659317875 24.431506622527714
4093 82 1 0.0 3.8394731798136768 7.894314448509806 25.43413220779977
4094 82 1 0.0 3.7699553741183838 7.61407277253119 26.213181292872108
4095 82 1 0.0 3.7201797795002816 6.823111921725077 26.701357961061497
4096 82 1 0.0 3.703233536626689 5.698928466146607 26.876242043002975
4097 82 1 0.0 3.7181415409631695 4.557043220287825 26.733693998137042
4098 82 1 0.0 3.76388414918996 3.7133442982459326 26.26963448374479
4099 82 1 0.0 3.8295682142444356 3.3766276801677098 25.499531132754942
4100 82 1 0.0 3.8727422797347386 3.4133947790448924 24.501328842495774
4101 83 1 0.0 3.844663117045389 3.621903825785535 23.36542858684629
4102 83 1 0.0 3.6978811916471415 3.8018297057971533 22.182109081380936
4103 83 1 0.0 3.4728494855592014 3.849104601311617 21.033341967536746
4104 83 1 0.0 3.3525351975354742 3.8157203137884377 19.98763082906881
4105 83 1 0.0 3.5329275042599066 3.767928309189369 19.11224863039828
4106 83 1 0.0 4.195359787265862 3.7682318125990055 18.474411179322487
4107 83 1 0.0 5.260659129492806 3.812509185209948 18.14031832639463
4108 83 1 0.0 6.425696269891403 3.839361628250688 18.175296507316563
4109 83 1 0.0 7.380048553862144 3.785525046966217 18.644643714041294
4110 83 1 0.0 7.856396522109849 3.6090144581527137 19.580151486594755
4111 83 1 0.0 7.906750460943281 3.425491039878671 20.765379031089612
4112 83 1 0.0 7.726547129242662 3.421422505267478 21.87239237605858
4113 83 1 0.0 7.51190358436209 3.7836087925222865 22.572734704023052
4114 83 1 0.0 7.412863746200701 4.615115384267039 22.674532961224383
4115 83 1 0.0 7.416277506191434 5.722414913535626 22.469702606171605
4116 83 1 0.0 7.472879163797653 6.846342646375851 22.35722372879871
4117 83 1 0.0 7.53359058990697 7.728703062940691 22.73302478815973
4118 83 1 0.0 7.566213114394708 8.198519737946 23.718419501196237
4119 83 1 0.0 7.568591733513573 8.240057085323683 24.945936150422806
4120 83 1 0.0 7.541669454745611 7.853587480786165 25.997700955379603
4121 83 1 0.0 7.487453369095991 7.045540868787249 26.475922643652666
4122 83 1 0.0 7.429940426750499 5.949596668614457 26.39782578919427
4123 83 1 0.0 7.413820002568749 4.8191758654848735 26.171164258058127
4124 83 1 0.0 7.484585767159002 3.9123536904986116 26.218871435099686
4125 83 1 0.0 7.670710809916187 3.4543382936054066 26.900748853708894
4126 83 1 0.0 7.85955578786209 3.3978469087029595 28.053191178324262
4127 83 1 0.0 7.868699197120209 3.560846027833231 29.253760724384524
4128 83 1 0.0 7.515223363890496 3.7603440063388276 30.07817941075933
4129 83 1 0.0 6.691605515375091 3.852733429746177 30.246216684117353
4130 83 1 0.0 5.586509488865864 3.849126652086185 30.043528389068307
4131 83 1 0.0 4.461321549894379 3.798624231037073 29.894711941387047
4132 83 1 0.0 3.5767356290377808 3.7501690216575527 30.222222584866575
4133 83 1 0.0 3.1074446899064836 3.7331142602086804 31.18241768451692
4134 83 1 0.0 3.0599028359895546 3.7384911122486084 32.411102274549314
4135 83 1 0.0 3.4210643421277016 3.7528890001400113 33.483746450830466
4136 83 1 0.0 4.1740672128935605 3.763246610975996 33.9923274031421
4137 83 1 0.0 5.209446037615507 3.7649776885382877 33.92937395023741
4138 83 1 0.0 6.322366891522402 3.7622240949096994 33.69992684226928
4139 83 1 0.0 7.30362640971946 3.759527582961295 33.727926632958834
4140 83 1 0.0 7.957607363166374 3.7608268604828665 34.38247204074299
4141 83 1 0.0 8.215143688601774 3.764447872784835 35.522228642414376
4142 83 1 0.0 8.075826295555153 3.7656646632462776 36.728317419473235
4143 83 1 0.0 7.539932721712553 3.7597207980202767 37.5790877082176
4144 83 1 0.0 6.63949167034881 3.7447994946680834 37.780423429401715
4145 83 1 0.0 5.544908407103895 3.731895432909022 37.594024236933464
4146 83 1 0.0 4.46427533828842 3.7354925204670084 37.43296734003742
4147 83 1 0.0 3.6053787372581314 3.769966095431272 37.70905802716256
4148 83 1 0.0 3.120399925123825 3.8300096278214406 38.60309442218917
4149 83 1 0.0 3.041813172639958 3.8679452110624277 39.798559478944476
4150 83 1 0.0 3.386549732573934 3.8305933489346833 40.91436369197851
4151 84 1 0.0 4.166971020038373 3.668699125650873 41.57945147653661
4152 84 1 0.0 5.263694275861613 3.446149633403902 41.71203586002819
4153 84 1 0.0 6.408837241184372 3.3543634599536376 41.55638788658862
4154 84 1 0.0 7.326581690791485 3.59157460766149 41.37420347691619
4155 84 1 0.0 7.769848897525169 4.3272427361669985 41.398998558618004
4156 84 1 0.0 7.792985745389533 5.4290364361565455 41.56873164830185
4157 84 1 0.0 7.630340003574358 6.584405174459003 41.644864662309864
4158 84 1 0.0 7.518671673135425 7.478383261368744 41.386494246818984
4159 84 1 0.0 7.628524174394374 7.8682269415718 40.623707981303944
4160 84 1 0.0 7.810180167647452 7.860498499740946 39.5299456691253
4161 84 1 0.0 7.817228985936768 7.6672229167411565 38.38231222998562
4162 84 1 0.0 7.403777786973096 7.500145071343533 37.457655992642025
4163 84 1 0.0 6.477318946838041 7.484861216217262 36.953485851593854
4164 84 1 0.0 5.309243068370881 7.542584596273969 36.879082137035645
4165 84 1 0.0 4.2237231489240425 7.564883287104259 37.21642316554982
4166 84 1 0.0 3.5384721697892485 7.447388472704915 37.94518538568685
4167 84 1 0.0 3.346814562155869 7.226863339717892 38.96508989833283
4168 84 1 0.0 3.4651782954926507 7.114228589284381 40.077192552279165
4169 84 1 0.0 3.6928839829105713 7.331164809633232 41.076453410122475
4170 84 1 0.0 3.8414937219495275 8.071679070873072 41.767149079881186
4171 84 1 0.0 3.867895532871725 9.201249694875226 42.06415840636898
4172 84 1 0.0 3.824189669442752 10.370114974040195 41.95482277789381
4173 84 1 0.0 3.764129858341584 11.224775303386552 41.42774198043437
4174 84 1 0.0 3.7331346249417994 11.49696135672633 40.50359376616752
4175 84 1 0.0 3.731848393130523 11.37623428042928 39.37536871588594
4176 84 1 0.0 3.7459462405558726 11.2052218963522 38.29366683876147
4177 84 1 0.0 3.7611014949966646 11.32640834625938 37.50893531907922
4178 84 1 0.0 3.7674200953439936 11.956005406262486 37.17462399463084
4179 84 1 0.0 3.766614117707142 12.979599321487303 37.19020948411493
4180 84 1 0.0 3.762271914715675 14.229326605323923 37.41411047465325
4181 84 1 0.0 3.757947549689947 15.53800637737303 37.70505443550333
4182 84 1 0.0 3.755735563756755 16.767512845603697 37.93491212721515
4183 84 1 0.0 3.755757898931589 17.818989262165022 37.99331796260709
4184 84 1 0.0 3.7579966645233682 18.596362565311377 37.77116557618189
4185 84 1 0.0 3.7622906981922384 19.012708949968047 37.17009008111128
4186 84 1 0.0 3.7665435356250643 19.10469203849446 36.23682162536205
4187 84 1 0.0 3.7672688164288886 18.997733529906572 35.12229477711491
4188 84 1 0.0 3.760949750738485 18.819198334280305 33.97972548771552
4189 84 1 0.0 3.745985874382246 18.683826635993004 32.93705181598687
4190 84 1 0.0 3.7322234439079627 18.63094779040539 31.97122027635964
4191 84 1 0.0 3.733740711330852 18.67201082851083 31.00335392542281
4192 84 1 0.0 3.764608276436061 18.818380172999376 29.954538329397398
4193 84 1 0.0 3.8237437800014993 19.039661767790548 28.800578807795798
4194 84 1 0.0 3.8662111395743097 19.18460959847279 27.675643473485934
4195 84 1 0.0 3.8391869444117344 19.080241775100873 26.742382840554377
4196 84 1 0.0 3.691640234298604 18.556649811565492 26.161228688280513
4197 84 1 0.0 3.467984673985365 17.607578205181202 25.97446933332694
4198 84 1 0.0 3.3540045285110307 16.469170860396503 26.049401444207252
4199 84 1 0.0 3.54690839069469 15.397160268504111 26.239180404448152
4200 84 1 0.0 4.226347942376779 14.63843538842221 26.40203022150558
4201 85 1 0.0 5.300469851684136 14.303126304991087 26.474557530102068
4202 85 1 0.0 6.463820629022069 14.393771288542057 26.455034645891395
4203 85 1 0.0 7.405180137380904 14.9100039108993 26.343398697154363
4204 85 1 0.0 7.862407238123713 15.826990986914607 26.153767583775196
4205 85 1 0.0 7.8998952821233575 16.957116058312867 25.99460732131845
4206 85 1 0.0 7.71533981556811 18.04630914240731 26.0128999515222
4207 85 1 0.0 7.506813656802104 18.840332476371152 26.355720225745454
4208 85 1 0.0 7.419860655815315 19.172094217417 27.1060143414335
4209 85 1 0.0 7.431754926446397 19.153663173174177 28.14130099221239
4210 85 1 0.0 7.486146196501985 18.952891239124853 29.298049459924204
4211 85 1 0.0 7.527123295392671 18.736789478630595 30.414018952044792
4212 85 1 0.0 7.528782361664146 18.614908200782068 31.415119566021303
4213 85 1 0.0 7.513967943391521 18.60344977838983 32.370467031818045
4214 85 1 0.0 7.509990821165952 18.710064231636974 33.36229729519149
4215 85 1 0.0 7.541850016991025 18.936460976078482 34.465708162117835
4216 85 1 0.0 7.593322185985045 19.17841890977942 35.62851294687249
4217 85 1 0.0 7.6126754820406966 19.24046952813584 36.68888347850601
4218 85 1 0.0 7.5470170549866165 18.92416085493378 37.481406692155105
4219 85 1 0.0 7.36357724619243 18.078543257924405 37.86782576543863
4220 85 1 0.0 7.179029559222622 16.905439202636046 37.9115573899011
4221 85 1 0.0 7.177311223347804 15.765452361266552 37.766790639871125
4222 85 1 0.0 7.54267817988936 15.019941792022426 37.58814907625994
4223 85 1 0.0 8.376272569496525 14.888102148262426 37.495984829125916
4224 85 1 0.0 9.484180676321365 15.084441257593188 37.48898568034217
4225 85 1 0.0 10.607043693679064 15.211524498668949 37.53885355760252
4226 85 1 0.0 11.48647732135212 14.874793959082893 37.617241709453126
4227 85 1 0.0 11.952366920598756 13.94026067355799 37.69139408392489
4228 85 1 0.0 11.992029604116855 12.738668689649876 37.72069050120225
4229 85 1 0.0 11.609058331503386 11.64880778454613 37.663697760337485
4230 85 1 0.0 10.812786892893977 11.034082388678394 37.48458246533151
4231 85 1 0.0 9.731588062014726 10.938874096507636 37.263625967829896
4232 85 1 0.0 8.606070144486614 11.106774823330047 37.190588044693634
4233 85 1 0.0 7.6812201086059755 11.269641728791038 37.459499572019936
4234 85 1 0.0 7.173870122176442 11.199239725171111 38.22695059562885
4235 85 1 0.0 7.066850169552144 10.999017881223565 39.33835026570511
4236 85 1 0.0 7.227032178370791 10.936788903947 40.48490433392372
4237 85 1 0.0 7.520456962888396 11.281543538207945 41.356713332657506
4238 85 1 0.0 7.813168408156958 12.191877679902365 41.72953018618586
4239 85 1 0.0 7.971222489992816 13.391725145778933 41.71635042653297
4240 85 1 0.0 7.860678159551395 14.498056556872967 41.51315945023204
4241 85 1 0.0 7.348541498242686 15.129833857408471 41.315329596916044
4242 85 1 0.0 6.420362540042759 15.155255377046247 41.241502273330944
4243 85 1 0.0 5.294072127907107 14.931095637003883 41.25990382183041
4244 85 1 0.0 4.214602819436779 14.870899745380157 41.321282959724606
4245 85 1 0.0 3.4222173823535247 15.372040429838675 41.37736192591407
4246 85 1 0.0 3.0434538883362054 16.43803992438461 41.403571402256745
4247 85 1 0.0 3.087499966057396 17.666013310318004 41.399806381186174
4248 85 1 0.0 3.558148081005726 18.634391181252056 41.3670865969292
4249 85 1 0.0 4.442128303266949 18.97622038971936 41.309286516256414
4250 85 1 0.0 5.566958570561496 18.834181449750655 41.25691860399593
4251 86 1 0.0 6.673408695908168 18.628633239239576 41.25500927151404
4252 86 1 0.0 7.501376259748793 18.78272662858582 41.34873086459351
4253 86 1 0.0 7.858916415797819 19.59086898370747 41.548672020054404
4254 86 1 0.0 7.851797470507455 20.785114394528794 41.714359291161095
4255 86 1 0.0 7.667053110560513 21.944013982164037 41.664084513980974
4256 86 1 0.0 7.4913212752111935 22.647441133388053 41.216835345850086
4257 86 1 0.0 7.438558764622847 22.717611621098303 40.31896114174081
4258 86 1 0.0 7.465925091611927 22.499554003303857 39.19157261770973
4259 86 1 0.0 7.51017123648329 22.406345475225482 38.091543073883
4260 86 1 0.0 7.51005514694704 22.83872483615453 37.27181487167769
4261 86 1 0.0 7.462419456635558 23.84033896126609 36.87156303401659
4262 86 1 0.0 7.429707522765485 25.051535848656354 36.90147398812312
4263 86 1 0.0 7.477879858423468 26.091040792653907 37.365345297900355
4264 86 1 0.0 7.6580001349433555 26.6135542826875 38.25155751438088
4265 86 1 0.0 7.864477402447705 26.652090591401805 39.38636646771367
4266 86 1 0.0 7.8979823643840055 26.46603783402707 40.49901646566981
4267 86 1 0.0 7.557921988101397 26.317835990979514 41.31744395251327
4268 86 1 0.0 6.7137282508007265 26.40073115800335 41.638889199062945
4269 86 1 0.0 5.574283750951364 26.572547740949265 41.59654711618524
4270 86 1 0.0 4.451186998097906 26.58961336730227 41.42527066093055
4271 86 1 0.0 3.6555858167832675 26.20872832140034 41.359490191479566
4272 86 1 0.0 3.3623312646573535 25.329245116243943 41.5054990868111
4273 86 1 0.0 3.422228744837572 24.189434283907154 41.66494497206915
4274 86 1 0.0 3.6389697610384606 23.076842590335005 41.595182178538145
4275 86 1 0.0 3.819246757635243 22.274799880876614 41.06034185953402
4276 86 1 0.0 3.8744313992727353 21.919540803158675 40.06094519608775
4277 86 1 0.0 3.8453250205542022 21.965425485258365 38.889795669293534
4278 86 1 0.0 3.7807499891045335 22.355542902914234 37.85781011849775
4279 86 1 0.0 3.727236561614848 23.03283858621716 37.2537359442282
4280 86 1 0.0 3.7040290941099188 23.93855044994471 37.102409626954184
4281 86 1 0.0 3.7124593408242474 25.012795396473663 37.25541585395908
4282 86 1 0.0 3.75354632754444 26.195670756902757 37.561314583622185
4283 86 1 0.0 3.8217252123576406 27.418925631756892 37.87129022989594
4284 86 1 0.0 3.8759834759854654 28.569362078662277 38.05065732882657
4285 86 1 0.0 3.863431234577049 29.518721862024822 37.969464961118454
4286 86 1 0.0 3.7312980413303705 30.138870191257148 37.4979485199405
4287 86 1 0.0 3.491849625662257 30.36991347671974 36.599251291371324
4288 86 1 0.0 3.328007667580737 30.331024114719153 35.48030833560635
4289 86 1 0.0 3.4503470243833454 30.170390445271774 34.38755885628018
4290 86 1 0.0 4.064005494027486 30.03442481588141 33.56505366927668
4291 86 1 0.0 5.141618071818459 29.99359351372536 33.154709916419115
4292 86 1 0.0 6.340959415612353 30.01551502410507 33.16013310322665
4293 86 1 0.0 7.297419390510694 30.060495934137066 33.57509555858381
4294 86 1 0.0 7.6775142048182525 30.09089422009863 34.38458526309757
4295 86 1 0.0 7.569421361579543 30.096857547661102 35.45459068485929
4296 86 1 0.0 7.364749974716822 30.088531316041255 36.565467073477045
4297 86 1 0.0 7.4617840794763035 30.076500836756637 37.495685909780256
4298 86 1 0.0 8.174410050872593 30.06991446089111 38.05241724159607
4299 86 1 0.0 9.311211523639006 30.06931721992419 38.21465418042095
4300 86 1 0.0 10.493549463676604 30.072066479152802 38.02505300437066
4301 87 1 0.0 11.342616344355157 30.07551496677205 37.52637544894758
4302 87 1 0.0 11.625812666636284 30.077615258164023 36.763130002699484
4303 87 1 0.0 11.534604041051422 30.07805973922103 35.78489147668055
4304 87 1 0.0 11.33690222148182 30.076854431172645 34.64214798702194
4305 87 1 0.0 11.296802380556844 30.074024000877703 33.38631069863302
4306 87 1 0.0 11.474128365089364 30.07059106785329 32.11819425695235
4307 87 1 0.0 11.625536012484025 30.06905935680684 31.01193517377381
4308 87 1 0.0 11.483113489781053 30.072052616006815 30.247611707335373
4309 87 1 0.0 10.801200985478117 30.08174309874728 29.98720454265422
4310 87 1 0.0 9.679289616015927 30.09329992336315 30.111983050339447
4311 87 1 0.0 8.488946817371954 30.09637176182616 30.281936879307775
4312 87 1 0.0 7.609117343983209 30.080457599832798 30.151055703991567
4313 87 1 0.0 7.344051831492104 30.039850165065555 29.440638904908862
4314 87 1 0.0 7.499865819343702 30.000811651663856 28.320874308640665
4315 87 1 0.0 7.678884371676331 30.002683181179385 27.145593075641376
4316 87 1 0.0 7.482872818252981 30.084832634043874 26.269138176290806
4317 87 1 0.0 6.670772024362373 30.248225015136263 25.927118188711685
4318 87 1 0.0 5.506134248006758 30.370533059632237 25.973945426348354
4319 87 1 0.0 4.3535752386556466 30.30473654605349 26.18768627387698
4320 87 1 0.0 3.5747132160253234 29.905227117206632 26.34812938865988
4321 87 1 0.0 3.325139266214263 29.123437104536976 26.353439202013643
4322 87 1 0.0 3.4250665025433165 28.068764971719315 26.294476254732118
4323 87 1 0.0 3.6638991119103883 26.865120472200104 26.27980278760408
4324 87 1 0.0 3.838607677254743 25.635042948921527 26.408769583525636
4325 87 1 0.0 3.881514209982031 24.47655716504398 26.615948318258326
4326 87 1 0.0 3.8417605256970755 23.466529714643926 26.69369227171875
4327 87 1 0.0 3.7723233038150696 22.681132628937483 26.429686096075937
4328 87 1 0.0 3.721585757894971 22.189770623784675 25.656309330198095
4329 87 1 0.0 3.703735558992064 22.01146989319966 24.538667595096058
4330 87 1 0.0 3.7175366627817414 22.142533670093655 23.391940820142644
4331 87 1 0.0 3.7616777022932752 22.579154330531992 22.532032176082765
4332 87 1 0.0 3.826168689647757 23.306842535378003 22.178071182365212
4333 87 1 0.0 3.8701411077846783 24.273103407746557 22.204866751835386
4334 87 1 0.0 3.8458618955234596 25.41699313559626 22.41068257131802
4335 87 1 0.0 3.7064802352764823 26.677140473711642 22.594767532665273
4336 87 1 0.0 3.485582817845175 27.953203466195625 22.6461954222076
4337 87 1 0.0 3.3605123958094483 29.075192600879546 22.61457300819617
4338 87 1 0.0 3.523512118449999 29.865899357196373 22.566146392797005
4339 87 1 0.0 4.155253163830845 30.160480536830267 22.564095322369027
4340 87 1 0.0 5.195642673675155 30.051363275163993 22.60780157945517
4341 87 1 0.0 6.3571382962773395 29.874017680126997 22.63637708747622
4342 87 1 0.0 7.343291319216059 29.973430822512462 22.58657375094327
4343 87 1 0.0 7.890278574606061 30.64287225188163 22.413662673044175
4344 87 1 0.0 8.006110058219996 31.744705685792347 22.227215289306923
4345 87 1 0.0 7.833780628777125 32.927318872516864 22.213424330960677
4346 87 1 0.0 7.517260339653573 33.83755370524061 22.559036070974713
4347 87 1 0.0 7.2007539368501385 34.21874997725721 23.37550486612149
4348 87 1 0.0 7.02939231760237 34.19505045608682 24.477165803324564
4349 87 1 0.0 7.148534804432423 33.9845188861206 25.605072682440262
4350 87 1 0.0 7.702436009522425 33.80444525206061 26.500919384063213
4351 88 1 0.0 8.696031026049186 33.77453755375718 26.987122977216547
4352 88 1 0.0 9.86058257416864 33.822818565977656 27.04466917007159
4353 88 1 0.0 10.895474133956894 33.854982250237256 26.673014836375714
4354 88 1 0.0 11.509884167008414 33.78160840897893 25.876660665714255
4355 88 1 0.0 11.652396039594546 33.632694556643735 24.78338621738781
4356 88 1 0.0 11.519115765757384 33.561705136238416 23.648430061141063
4357 88 1 0.0 11.317568455617815 33.727800557310864 22.73291090212771
4358 88 1 0.0 11.235154798792681 34.27230584573939 22.268589629428075
4359 88 1 0.0 11.271010485042645 35.169695086112974 22.21258323675107
4360 88 1 0.0 11.32148299297591 36.30334571841435 22.372059684630738
4361 88 1 0.0 11.281879225552995 37.55571296645722 22.552668925742445
4362 88 1 0.0 11.095553286090963 38.80982578626162 22.60353065214352
4363 88 1 0.0 10.916204718550723 39.95122487130285 22.564070368030073
4364 88 1 0.0 10.955079368520993 40.866138076142484 22.525777438043406
4365 88 1 0.0 11.422596534953152 41.44120449294672 22.579728962344365
4366 88 1 0.0 12.376465006452179 41.63890775285643 22.74072592511853
4367 88 1 0.0 13.544254748697792 41.58569680129554 22.85867098699645
4368 88 1 0.0 14.610460570106364 41.429414104257 22.76195155282299
4369 88 1 0.0 15.267563094514257 41.31480098954947 22.284237434218145
4370 88 1 0.0 15.440067610295907 41.29649645869366 21.412676653244013
4371 88 1 0.0 15.315043057143146 41.327177957400984 20.3080961785991
4372 88 1 0.0 15.093681276316097 41.35403857355476 19.14066490676379
4373 88 1 0.0 14.962375179108175 41.33074394647756 18.066377939698576
4374 88 1 0.0 14.951480432382594 41.279205128727796 17.091784450203736
4375 88 1 0.0 14.997794530818261 41.26225235306098 16.133827517201844
4376 88 1 0.0 15.03684612448308 41.34327080195067 15.10823497345455
4377 88 1 0.0 15.020688496566635 41.54962475349107 13.964992546206798
4378 88 1 0.0 14.981661308680959 41.73366776458122 12.820530945776698
4379 88 1 0.0 14.976452659628993 41.69467791859081 11.841758625973972
4380 88 1 0.0 15.061554765835165 41.23239533435003 11.19529606647119
4381 88 1 0.0 15.23479850184953 40.28464235538845 10.960564289060953
4382 88 1 0.0 15.35425014956745 39.118231513176 11.009225741995671
4383 88 1 0.0 15.257606825047006 38.04792207282851 11.182664326161836
4384 88 1 0.0 14.786584215574226 37.38209919745282 11.324715898911597
4385 88 1 0.0 13.923669331121564 37.205862031473025 11.365108823952621
4386 88 1 0.0 12.825748304663898 37.3276845864787 11.339982184839785
4387 88 1 0.0 11.660548289976163 37.5388452668339 11.292089782035129
4388 88 1 0.0 10.583776475298437 37.645151917160355 11.26154992835312
4389 88 1 0.0 9.607656993884953 37.62585118844897 11.25702096129667
4390 88 1 0.0 8.650031467111296 37.57427700285678 11.266466987305948
4391 88 1 0.0 7.627084987336657 37.585765654290825 11.277488903645866
4392 88 1 0.0 6.485617956198457 37.723014646988986 11.280031339951824
4393 88 1 0.0 5.337642739164083 37.87259004426254 11.276686605621286
4394 88 1 0.0 4.35065085962516 37.86191192628559 11.274294175975077
4395 88 1 0.0 3.692017414237841 37.51852075757134 11.279686228387252
4396 88 1 0.0 3.4480440539528154 36.754463559024146 11.29432038831784
4397 88 1 0.0 3.4918341265005592 35.704013683194255 11.305520857654841
4398 88 1 0.0 3.6618634558729792 34.53753833261864 11.298316297220255
4399 88 1 0.0 3.7986310878938743 33.42301382669417 11.258374518460387
4400 88 1 0.0 3.829556927625618 32.42570030515754 11.198822270129806
4401 89 1 0.0 3.800004794423412 31.471481141387557 11.170045649048323
4402 89 1 0.0 3.7637480920039126 30.47630192874483 11.225087401449715
4403 89 1 0.0 3.770196372317094 29.366267742212873 11.406817068925974
4404 89 1 0.0 3.8094729290881313 28.205507971831288 11.619893440357997
4405 89 1 0.0 3.828953185833534 27.157673307890427 11.669319575032326
4406 89 1 0.0 3.7750677036951026 26.388614174410563 11.357895827191758
4407 89 1 0.0 3.6174324529038637 26.029479106881674 10.543459673899008
4408 89 1 0.0 3.4648014286276334 26.003167038055025 9.414132027709222
4409 89 1 0.0 3.4775934528073194 26.155249515478687 8.280674872794622
4410 89 1 0.0 3.81624572447616 26.331207805229344 7.453947977040861
4411 89 1 0.0 4.5680695569035645 26.41761142142566 7.130204187446953
4412 89 1 0.0 5.607814542632336 26.42046485820644 7.172557900032952
4413 89 1 0.0 6.771823537176962 26.367352731728243 7.3839303545107
4414 89 1 0.0 7.898088264738764 26.285977372227293 7.569009472662658
4415 89 1 0.0 8.913306410680292 26.210373900837908 7.627527270825441
4416 89 1 0.0 9.876091599387886 26.183995025144924 7.600557235709216
4417 89 1 0.0 10.855777233561708 26.251058746447633 7.540658571669867
4418 89 1 0.0 11.915425130979445 26.447261208608538 7.498138411148726
4419 89 1 0.0 13.020524439971355 26.675716378974805 7.488266384688795
4420 89 1 0.0 14.059497430379501 26.734819408195975 7.498638073159079
4421 89 1 0.0 14.918667635893495 26.42011367491855 7.516095419423656
4422 89 1 0.0 15.491475690266821 25.580169879301938 7.52874846939466
4423 89 1 0.0 15.718938630630834 24.418035856383565 7.533184286535764
4424 89 1 0.0 15.561578969561326 23.2820887338407 7.529465360066656
4425 89 1 0.0 14.979998439117987 22.521101556369445 7.517665541315452
4426 89 1 0.0 13.998692238910165 22.341974167402206 7.500488889161964
4427 89 1 0.0 12.84774167990986 22.49510966861356 7.489102520813815
4428 89 1 0.0 11.798496672357505 22.639275686029833 7.496372396656253
4429 89 1 0.0 11.11988701126692 22.435866986475556 7.534831259731179
4430 89 1 0.0 10.913539980605828 21.72789252093787 7.593976545650546
4431 89 1 0.0 11.008191689659448 20.654596531472194 7.625732242595155
4432 89 1 0.0 11.20744250549715 19.38250920633634 7.5785614848364995
4433 89 1 0.0 11.323065703525778 18.07625578962792 7.4079269730966635
4434 89 1 0.0 11.313502591150229 16.866276092425284 7.19490307457693
4435 89 1 0.0 11.264030682640387 15.853446901093363 7.129191149675831
4436 89 1 0.0 11.264107775955237 15.137670660100595 7.404072700922267
4437 89 1 0.0 11.38202299476358 14.798494322028157 8.171478970764843
4438 89 1 0.0 11.528096041976742 14.763563722784472 9.274768423621746
4439 89 1 0.0 11.541245196991463 14.891866119221723 10.417826102385169
4440 89 1 0.0 11.260041653465505 15.042054079531558 11.303857831618043
4441 89 1 0.0 10.577697818233254 15.10674143832042 11.718360453554235
4442 89 1 0.0 9.582276442640485 15.099647768446811 11.74028024557628
4443 89 1 0.0 8.40525514083021 15.061476372376202 11.513947341569231
4444 89 1 0.0 7.177851993515908 15.03270383502424 11.183691651042373
4445 89 1 0.0 6.0074665335962685 15.03299985382987 10.893822491601904
4446 89 1 0.0 4.95884331209786 15.044772517555991 10.788612304243665
4447 89 1 0.0 4.092294254882901 15.046557758955515 11.012329697816764
4448 89 1 0.0 3.4679368597377858 15.018462158622423 11.698848478530522
4449 89 1 0.0 3.14182966157835 14.973381806899356 12.765036148858675
4450 89 1 0.0 3.1661891665580484 14.955249845632327 13.922351960974547
4451 90 1 0.0 3.593080880612657 15.009219241344198 14.87418216912044
4452 90 1 0.0 4.450887967374905 15.16535336202347 15.360046569861913
4453 90 1 0.0 5.5701840683649335 15.327677946584368 15.421274580060677
4454 90 1 0.0 6.68311199113337 15.337501889932563 15.249377328308983
4455 90 1 0.0 7.52109778998001 15.035677396108207 15.036959539600426
4456 90 1 0.0 7.8899370903556765 14.317970560438365 14.935900222361928
4457 90 1 0.0 7.889567690300437 13.297339685199399 14.93700241583095
4458 90 1 0.0 7.692638235257355 12.14043217572462 14.991251780754064
4459 90 1 0.0 7.471380419759112 11.013283557534367 15.04976275318762
4460 90 1 0.0 7.345040852957947 10.004173190376894 15.08001421548667
4461 90 1 0.0 7.328569332935303 9.048323775271342 15.081697125378877
4462 90 1 0.0 7.4247360510462 8.06308431325477 15.058264112745151
4463 90 1 0.0 7.632732834130249 6.970535460748762 15.01377701697528
4464 90 1 0.0 7.863972959401962 5.808827057565086 14.9672418025975
4465 90 1 0.0 7.938936548310969 4.736349448482523 14.953145624758742
4466 90 1 0.0 7.673894189992878 3.917059224024439 15.006692303189096
4467 90 1 0.0 6.916672149482164 3.494842895989586 15.151553357281077
4468 90 1 0.0 5.8110577137626205 3.425349493036998 15.30323873814575
4469 90 1 0.0 4.662757157350909 3.561244135729001 15.318083673443734
4470 90 1 0.0 3.779127108826158 3.7541422844627452 15.051820254374356
4471 90 1 0.0 3.3911356980377882 3.878899675181478 14.399832710187145
4472 90 1 0.0 3.394574077122904 3.9123455797445774 13.431490673868646
4473 90 1 0.0 3.5933292478978296 3.859269994633768 12.263869861342611
4474 90 1 0.0 3.7916720957264944 3.724657170856221 11.014021875083488
4475 90 1 0.0 3.865775330926896 3.549504759587633 9.794273097783194
4476 90 1 0.0 3.8475798353490154 3.452829871153736 8.706713192184592
4477 90 1 0.0 3.7893999825074567 3.5638540676957366 7.8520929228080165
4478 90 1 0.0 3.7425435169283197 4.008321687457118 7.328148230500702
4479 90 1 0.0 3.7289565120117643 4.810552307775512 7.144677730472814
4480 90 1 0.0 3.7372934358129757 5.879865474215732 7.2117726770153965
4481 90 1 0.0 3.754412250677135 7.119375017370038 7.43414384362298
4482 90 1 0.0 3.767914718177458 8.428331270492048 7.713775991034812
4483 90 1 0.0 3.7732658764385203 9.665140550176895 7.92383509210107
4484 90 1 0.0 3.7706550495184206 10.663669935202881 7.920172684226887
4485 90 1 0.0 3.760336014521653 11.257451717531369 7.558404085390722
4486 90 1 0.0 3.744177923135475 11.348647788843161 6.747534666652697
4487 90 1 0.0 3.7319162190576516 11.173621456217482 5.656560114925373
4488 90 1 0.0 3.7356772776425298 11.070315365850405 4.533499254801813
4489 90 1 0.0 3.767532759824227 11.376084105594524 3.626165724549576
4490 90 1 0.0 3.823273315461359 12.248119203680753 3.1165363520597316
4491 90 1 0.0 3.85981629814584 13.413446521078004 3.0293929468672363
4492 90 1 0.0 3.8284002138260638 14.536250700737218 3.366553313769418
4493 90 1 0.0 3.6830694047841406 15.286669193768349 4.126721254527517
4494 90 1 0.0 3.4765751770451154 15.544254238716265 5.199052561593621
4495 90 1 0.0 3.3841966631734657 15.44851074389448 6.336717895540188
4496 90 1 0.0 3.5888529101393725 15.15515231242799 7.284408906109026
4497 90 1 0.0 4.252459690945685 14.819037171859335 7.807063300376517
4498 90 1 0.0 5.285524137835061 14.584784726342802 7.911963562871469
4499 90 1 0.0 6.43284614398365 14.59026581662054 7.766125287737117
4500 90 1 0.0 7.436301839085416 14.973232210764676 7.539382424159645
4501 91 1 0.0 8.069128769724497 15.820444360022556 7.381026846808352
4502 91 1 0.0 8.274191460242875 16.942861944385687 7.329242886022223
4503 91 1 0.0 8.051441678069878 18.058625058899818 7.384822097266243
4504 91 1 0.0 7.400995728069072 18.88600264634742 7.5484461157670895
4505 91 1 0.0 6.386454552895674 19.247120226064037 7.778092090489673
4506 91 1 0.0 5.238725567574591 19.23780539808534 7.9191944010056385
4507 91 1 0.0 4.2159534935909795 18.998444154864206 7.798865589983282
4508 91 1 0.0 3.5721618835598092 18.669467244449955 7.248318314901552
4509 91 1 0.0 3.3834965663790992 18.39323715409563 6.275734222469361
4510 91 1 0.0 3.4842595589721848 18.31474277734843 5.129903249538981
4511 91 1 0.0 3.691458835242506 18.579160819810568 4.076821024874963
4512 91 1 0.0 3.8315009462115954 19.31378509087859 3.370026965262125
4513 91 1 0.0 3.858847236333372 20.40225649900382 3.0933456857310166
4514 91 1 0.0 3.82047561502241 21.55218248420242 3.20798686390605
4515 91 1 0.0 3.765418641658654 22.467261055133434 3.6724370890984135
4516 91 1 0.0 3.7359929473446196 22.903771020397457 4.438871268840007
4517 91 1 0.0 3.7341183329369105 22.93426878443023 5.421499054512518
4518 91 1 0.0 3.746681847351199 22.74900618999013 6.520402199968112
4519 91 1 0.0 3.7605486582149337 22.538385961690487 7.635662336656675
4520 91 1 0.0 3.7663344470804287 22.440768257474353 8.693574850953887
4521 91 1 0.0 3.7655808046842876 22.442904050904296 9.696800425155956
4522 91 1 0.0 3.7618080173391957 22.504087705995076 10.66182959046995
4523 91 1 0.0 3.7585049890334035 22.583705546339214 11.605275851158034
4524 91 1 0.0 3.7574635881468863 22.646116716400684 12.550402622267283
4525 91 1 0.0 3.757946943571656 22.66309032213355 13.530382298901031
4526 91 1 0.0 3.759012121480129 22.60699929476668 14.579194742246798
4527 91 1 0.0 3.7597569622555858 22.456321894297364 15.724456779494611
4528 91 1 0.0 3.7599155876839547 22.284810012509503 16.89449011694844
4529 91 1 0.0 3.759725674182852 22.241615322423705 17.93903406352902
4530 91 1 0.0 3.759438670749922 22.477951735109322 18.7056786432796
4531 91 1 0.0 3.759275983578902 23.11600922449454 19.071002215775586
4532 91 1 0.0 3.759257712621086 24.08349858923134 19.105823762049376
4533 91 1 0.0 3.759321249343804 25.22822710608781 18.960767773033275
4534 91 1 0.0 3.7594037355240446 26.397768692517243 18.786692364931948
4535 91 1 0.0 3.75945521054115 27.477897363034597 18.69811006793936
4536 91 1 0.0 3.7594673059614725 28.47757480198838 18.692326169501456
4537 91 1 0.0 3.7594400214393557 29.430547282720298 18.74306459260686
4538 91 1 0.0 3.7593736795553157 30.370477379736286 18.823949147849618
4539 91 1 0.0 3.759291056274186 31.3252080024521 18.901642729595373
4540 91 1 0.0 3.7592516258618196 32.31307027273635 18.931431158907753
4541 91 1 0.0 3.759318251863846 33.35151684920078 18.867549524709318
4542 91 1 0.0 3.759544847655337 34.454554649562034 18.671496892705296
4543 91 1 0.0 3.7598241964101535 35.57415681017934 18.435545930440696
4544 91 1 0.0 3.7599094641358124 36.60854502476026 18.36528288406494
4545 91 1 0.0 3.7595491969954593 37.45416238552012 18.67004347489981
4546 91 1 0.0 3.7585924336294467 38.01380770477667 19.51069076748081
4547 91 1 0.0 3.757639946032294 38.23782371975803 20.68548841708958
4548 91 1 0.0 3.7576330019613726 38.09808807084631 21.8284615737182
4549 91 1 0.0 3.75951451369452 37.56658706451728 22.572829949712347
4550 91 1 0.0 3.763396577160536 36.66065835550656 22.696078083655014
4551 92 1 0.0 3.76642194095852 35.55972584662315 22.491294687136577
4552 92 1 0.0 3.7650702517181505 34.479409849641186 22.366710994531687
4553 92 1 0.0 3.7558814203060638 33.6346053411804 22.727574523689984
4554 92 1 0.0 3.7409626251752472 33.17320014546124 23.703494219130814
4555 92 1 0.0 3.7324114645640907 33.12283825600731 24.92944767994229
4556 92 1 0.0 3.7433664001521048 33.49863592375809 25.988878766353615
4557 92 1 0.0 3.7855063850997976 34.308873340423446 26.484597748370508
4558 92 1 0.0 3.8399374738826357 35.41863307774379 26.42509069450493
4559 92 1 0.0 3.8587699739294337 36.55718716462887 26.2035920400414
4560 92 1 0.0 3.79297039189251 37.448450285547096 26.228513462635743
4561 92 1 0.0 3.6105921801740495 37.85431611801763 26.851126743921014
4562 92 1 0.0 3.422764368082841 37.85469107402067 27.944249311685795
4563 92 1 0.0 3.4119588501454086 37.68805467873152 29.14212325321026
4564 92 1 0.0 3.7611711360727482 37.59405029404469 30.077239647310137
4565 92 1 0.0 4.579205817809778 37.728681045014405 30.479555574088717
4566 92 1 0.0 5.6807693104817405 37.91639409400049 30.465390408956594
4567 92 1 0.0 6.807703884112611 37.8994921234615 30.246786522453625
4568 92 1 0.0 7.702479750647572 37.421795442586834 30.0351347523749
4569 92 1 0.0 8.187976135891473 36.42145900411015 29.958396077910766
4570 92 1 0.0 8.245678696230742 35.21996200104768 29.97996644453744
4571 92 1 0.0 7.875641192808463 34.183659515891 30.043976117429967
4572 92 1 0.0 7.082842589041037 33.665070086728896 30.095840787883933
4573 92 1 0.0 5.993518263206484 33.67606232997736 30.112622799309513
4574 92 1 0.0 4.859764415939054 33.87491961604686 30.104232849281484
4575 92 1 0.0 3.9395237326433783 33.90350057954994 30.082107506560284
4576 92 1 0.0 3.4625415015195076 33.44048246730263 30.05759922479587
4577 92 1 0.0 3.3934215397517646 32.51074969307221 30.041269519242316
4578 92 1 0.0 3.551412581670899 31.328983352538515 30.043246299216346
4579 92 1 0.0 3.754271771567663 30.111812177710608 30.07365302450127
4580 92 1 0.0 3.854341515633625 29.030421722286327 30.13322002621952
4581 92 1 0.0 3.856060482880692 28.056151212009734 30.18136929526505
4582 92 1 0.0 3.8056653880219824 27.105419483428527 30.16617074943888
4583 92 1 0.0 3.749318838901175 26.094953480698795 30.03607788846645
4584 92 1 0.0 3.719040733520439 24.999639615941902 29.811643236131154
4585 92 1 0.0 3.716147824621842 23.92062571888358 29.66994284201999
4586 92 1 0.0 3.7379313122653826 22.975614014050045 29.808574877924038
4587 92 1 0.0 3.7811821149497766 22.281080462772376 30.417314078958626
4588 92 1 0.0 3.8280415706570547 21.917592764389067 31.456844055644105
4589 92 1 0.0 3.844007974642822 21.924924089142372 32.627583397904004
4590 92 1 0.0 3.7936786127546163 22.34063910158748 33.61586064999174
4591 92 1 0.0 3.6515973754836057 23.18539337579934 34.13684854579648
4592 92 1 0.0 3.497740403244337 24.300609117545346 34.21146312758146
4593 92 1 0.0 3.475556256847357 25.419806294803458 34.04468430627045
4594 92 1 0.0 3.72936459284247 26.275024024825953 33.844018086021194
4595 92 1 0.0 4.368006009735586 26.65973827091773 33.776379617303675
4596 92 1 0.0 5.3271578102215855 26.6672809489496 33.810571519092456
4597 92 1 0.0 6.489747525657271 26.482327425251647 33.855046492173386
4598 92 1 0.0 7.738704687530154 26.28936815568599 33.81846709806126
4599 92 1 0.0 8.961313580132556 26.21130649577936 33.676306122731184
4600 92 1 0.0 10.055278269829637 26.223684012153786 33.563895708093426
4601 93 1 0.0 10.919828630648713 26.280463533542584 33.63997679942844
4602 93 1 0.0 11.456557190636545 26.336155819896586 34.0599495096692
4603 93 1 0.0 11.650526788197158 26.364629517826252 34.86118553531573
4604 93 1 0.0 11.590619033800035 26.36383024231841 35.93425509086621
4605 93 1 0.0 11.37220869634549 26.333209459056075 37.16054695607919
4606 93 1 0.0 11.092981182871583 26.274533673100358 38.42190192538613
4607 93 1 0.0 10.878356508477223 26.217356825689187 39.60558632891133
4608 93 1 0.0 10.872071652852187 26.209584712300526 40.602449721933084
4609 93 1 0.0 11.218188489893624 26.299448641469198 41.30340521661091
4610 93 1 0.0 12.013394287752112 26.506019255374294 41.62836259271946
4611 93 1 0.0 13.097548817955214 26.69028121696743 41.654428538320566
4612 93 1 0.0 14.223887269025125 26.659898839120824 41.5117302194606
4613 93 1 0.0 15.145689618783976 26.222721888718933 41.330381401164544
4614 93 1 0.0 15.675272826879535 25.306597045810413 41.211786109067724
4615 93 1 0.0 15.780875902459504 24.156293774386857 41.181523330532436
4616 93 1 0.0 15.456181088445557 23.068296741681035 41.252798984578085
4617 93 1 0.0 14.697456373069278 22.33499992691653 41.436996863707364
4618 93 1 0.0 13.613097161569724 22.071410047708813 41.6664866599463
4619 93 1 0.0 12.464250981759088 22.150877664313803 41.76599649216146
4620 93 1 0.0 11.523020302916468 22.429422454672437 41.552534736188655
4621 93 1 0.0 11.041141122372277 22.763008646110524 40.8623602066043
4622 93 1 0.0 10.992057591498869 23.006842776849183 39.794773846492625
4623 93 1 0.0 11.147754606742089 23.01558288365264 38.63949637585458
4624 93 1 0.0 11.27572169510167 22.643874764003677 37.690497548806206
4625 93 1 0.0 11.193619690741293 21.79441314886855 37.19463393150087
4626 93 1 0.0 11.021596745759744 20.659584105579636 37.114712447556066
4627 93 1 0.0 10.992609070719812 19.539809692638993 37.30760801358416
4628 93 1 0.0 11.33970429482489 18.735595317371075 37.63001444111732
4629 93 1 0.0 12.18168420509871 18.433278291784035 37.93812404910475
4630 93 1 0.0 13.303801017561922 18.48587334484803 38.08666501012168
4631 93 1 0.0 14.430761631950627 18.68589109169821 37.93009972753432
4632 93 1 0.0 15.289324940781517 18.828022083005443 37.32600771484128
4633 93 1 0.0 15.717788665791112 18.82545019932881 36.301403201821685
4634 93 1 0.0 15.720986498773076 18.76827889064387 35.136279358735855
4635 93 1 0.0 15.317360594538718 18.761068564281544 34.13130149384674
4636 93 1 0.0 14.531579343274988 18.897656523775687 33.56985188039534
4637 93 1 0.0 13.485765988387332 19.104038922539342 33.464793683526786
4638 93 1 0.0 12.379322244385671 19.173119440482196 33.6144773746812
4639 93 1 0.0 11.413772592288161 18.89414583314597 33.81136096448954
4640 93 1 0.0 10.773818502843703 18.106354574695967 33.87766766324471
4641 93 1 0.0 10.531169061839519 16.984733259145614 33.835539770876025
4642 93 1 0.0 10.711010155864711 15.842510798595935 33.78943376834681
4643 93 1 0.0 11.338363507815407 14.993314087571127 33.84404228691679
4644 93 1 0.0 12.37135247708349 14.646766389817623 34.03935352539425
4645 93 1 0.0 13.551886341066531 14.676353455794748 34.206232338903135
4646 93 1 0.0 14.578274346125612 14.887778189086252 34.13337341404311
4647 93 1 0.0 15.15205830155669 15.087931991493715 33.61215928193767
4648 93 1 0.0 15.200850763117183 15.166824423615264 32.621948092646846
4649 93 1 0.0 15.022506417262342 15.15058988614461 31.449950713849763
4650 93 1 0.0 14.949165063344152 15.077968194242652 30.41188574993383
4651 94 1 0.0 15.298519492986243 14.98771612254697 29.808789997291004
4652 94 1 0.0 16.127339661978006 14.918896745434479 29.676536763140763
4653 94 1 0.0 17.2658643457065 14.910839064338273 29.820786471998773
4654 94 1 0.0 18.536806747445947 15.002880915030218 30.03955166676456
4655 94 1 0.0 19.773745123964634 15.21460814693617 30.153449308229103
4656 94 1 0.0 20.89173070916068 15.417493842866799 30.15259844233169
4657 94 1 0.0 21.842795445853348 15.415782474351275 30.10405537068765
4658 94 1 0.0 22.579155826500337 15.013387186494137 30.075259366836246
4659 94 1 0.0 23.05143341070886 14.110124441525526 30.108534767252934
4660 94 1 0.0 23.20453663405201 12.949340867858748 30.156243029526966
4661 94 1 0.0 22.982095213636835 11.851272439195384 30.150610008792484
4662 94 1 0.0 22.328921723232728 11.134161756178353 30.024835556610928
4663 94 1 0.0 21.299826443002832 10.93088114455723 29.80269463524122
4664 94 1 0.0 20.147413449093506 11.040976976894116 29.67083101169714
4665 94 1 0.0 19.14494730905167 11.229178163679862 29.83290086495018
4666 94 1 0.0 18.554932006465247 11.270295373562236 30.480272433383035
4667 94 1 0.0 18.413698002402047 11.151044759564062 31.546037376810784
4668 94 1 0.0 18.54264846112286 11.059511195622457 32.71785329079698
4669 94 1 0.0 18.754677042381633 11.191752242549551 33.673660427842464
4670 94 1 0.0 18.880113759086203 11.720313340216086 34.13230042877754
4671 94 1 0.0 18.895653175674916 12.620374056939967 34.15595010932806
4672 94 1 0.0 18.85112426428864 13.768495573142852 33.97834158598608
4673 94 1 0.0 18.7968969947197 15.040509558607377 33.8344760219085
4674 94 1 0.0 18.772477568542726 16.312246553299584 33.88751140349883
4675 94 1 0.0 18.774210176813803 17.459532608379618 34.01517106054692
4676 94 1 0.0 18.78772128011476 18.35819266037942 34.024300908171405
4677 94 1 0.0 18.798689138030852 18.884823298430703 33.72248411980494
4678 94 1 0.0 18.7994759829531 19.015592622155584 33.01243725367239
4679 94 1 0.0 18.79565547212971 18.923480053869106 31.98491586831936
4680 94 1 0.0 18.794351793317258 18.804563354144676 30.75274431577445
4681 94 1 0.0 18.802285229716716 18.846719106643654 29.429770104567535
4682 94 1 0.0 18.81619587764247 19.035178796976442 28.155122193875933
4683 94 1 0.0 18.82244433156667 19.144420826424046 27.094222523822218
4684 94 1 0.0 18.806907379881157 18.939100039685304 26.41371859469889
4685 94 1 0.0 18.75951636719396 18.219368018674217 26.246969823056077
4686 94 1 0.0 18.708425601814056 17.12000988489593 26.413523422914835
4687 94 1 0.0 18.70278681417481 15.959638516977243 26.560536854954826
4688 94 1 0.0 18.79196866295237 15.058765952028471 26.333386589502286
4689 94 1 0.0 18.99019482457614 14.659732133353597 25.491753082723235
4690 94 1 0.0 19.156781580125863 14.660320408507138 24.299130752052765
4691 94 1 0.0 19.108378817294966 14.863412346955823 23.15778030569323
4692 94 1 0.0 18.662308767622036 15.07225235652049 22.46873824048665
4693 94 1 0.0 17.763564055590045 15.159402182439637 22.400221718150075
4694 94 1 0.0 16.634886077933235 15.148224432382756 22.613946095289823
4695 94 1 0.0 15.535521044835379 15.081901630078882 22.705056663199542
4696 94 1 0.0 14.720706297874411 15.003330190938119 22.280459373255976
4697 94 1 0.0 14.32782776782512 14.946995611400567 21.29279622310834
4698 94 1 0.0 14.360119756548041 14.937809141210211 20.08826456511281
4699 94 1 0.0 14.813530493442432 15.000162031541196 19.03443661569528
4700 94 1 0.0 15.670824662010771 15.149335785229084 18.466700434146684
4701 95 1 0.0 16.77465261046642 15.303793769592142 18.378391810995787
4702 95 1 0.0 17.88314207524915 15.323594752134992 18.55650682814966
4703 95 1 0.0 18.75325392857757 15.067991204432614 18.78519297566014
4704 95 1 0.0 19.1920006928307 14.430701668495587 18.887443088085348
4705 95 1 0.0 19.251238782062384 13.474046656296494 18.876274610404764
4706 95 1 0.0 19.057576369192237 12.311821493884965 18.822720214195453
4707 95 1 0.0 18.737670782434908 11.057831122458456 18.797703598471752
4708 95 1 0.0 18.42742412676053 9.824947435266171 18.83501071994299
4709 95 1 0.0 18.28490602121273 8.723805023985957 18.879377096671732
4710 95 1 0.0 18.471439878381485 7.864710084549302 18.86246723923109
4711 95 1 0.0 19.142257671467117 7.355086963210506 18.71918790354357
4712 95 1 0.0 20.236467977904308 7.20011239306951 18.499480245463914
4713 95 1 0.0 21.423838257805134 7.27753827997928 18.39664562346694
4714 95 1 0.0 22.357239049657615 7.457122624736929 18.612978995416203
4715 95 1 0.0 22.723818594300784 7.614115154420542 19.326259300081478
4716 95 1 0.0 22.623297158840046 7.689864910936819 20.41918666467268
4717 95 1 0.0 22.428419290223285 7.669462917423359 21.57918942167628
4718 95 1 0.0 22.51679777487176 7.538780151239085 22.4902140525859
4719 95 1 0.0 23.18246637749282 7.307973233423284 22.90008527924295
4720 95 1 0.0 24.265318491164756 7.119158827380299 22.90372075680906
4721 95 1 0.0 25.451734580933746 7.159060008435401 22.71336585632505
4722 95 1 0.0 26.428130288906885 7.614209274032624 22.541211787016668
4723 95 1 0.0 26.964591141019653 8.549894411761828 22.52084230666108
4724 95 1 0.0 27.052661061066164 9.710491335475883 22.577782078632467
4725 95 1 0.0 26.720105764079165 10.78788753227297 22.603525568510115
4726 95 1 0.0 25.996305829171018 11.47862570923004 22.49261571160974
4727 95 1 0.0 24.980996234864424 11.682061435508453 22.272407399432012
4728 95 1 0.0 23.869946805932397 11.574392982245996 22.15154590332357
4729 95 1 0.0 22.865834719370266 11.35173066424535 22.35171589185579
4730 95 1 0.0 22.163633223917646 11.200225696641441 23.071473474234402
4731 95 1 0.0 21.852743476218084 11.169553077177863 24.19242860981906
4732 95 1 0.0 21.945989550378155 11.210394306771994 25.366293270764142
4733 95 1 0.0 22.454478670433176 11.27121146263879 26.239625140731
4734 95 1 0.0 23.361570007371565 11.307084041302515 26.533769400275403
4735 95 1 0.0 24.482937377330423 11.313081527169446 26.42202250503996
4736 95 1 0.0 25.571583176805607 11.299219428491316 26.24659505373514
4737 95 1 0.0 26.380474198772596 11.275539380349114 26.349890955278152
4738 95 1 0.0 26.74663740420158 11.252381510759868 26.960058142059374
4739 95 1 0.0 26.753059313766894 11.240959336324794 27.97093222768178
4740 95 1 0.0 26.52747534892794 11.252645274478905 29.215525376545337
4741 95 1 0.0 26.197851496194666 11.298347392919961 30.527319252303208
4742 95 1 0.0 25.904751505752195 11.363602315438841 31.765448324923508
4743 95 1 0.0 25.80758622313643 11.39598929221207 32.82742537493701
4744 95 1 0.0 26.06731085916671 11.339977277162172 33.61390797147063
4745 95 1 0.0 26.827680210074156 11.149056276954374 34.03364737984833
4746 95 1 0.0 27.96240626423155 10.918344885166386 34.12246415413193
4747 95 1 0.0 29.1306427438578 10.85549046178569 34.0171397533951
4748 95 1 0.0 29.9856242077369 11.17124477368775 33.85724091321307
4749 95 1 0.0 30.249344765929916 12.021845838903523 33.765821549372596
4750 95 1 0.0 30.106720325274924 13.19651935361115 33.75476347044652
4751 96 1 0.0 29.933676437855542 14.333055298738133 33.79007692547444
4752 96 1 0.0 30.10669762966197 15.068812788835336 33.83763005659687
4753 96 1 0.0 30.862044040723468 15.195027398312028 33.86964589545076
4754 96 1 0.0 31.98176445974818 15.001367511897193 33.878932074032626
4755 96 1 0.0 33.156106347019765 14.878240507270661 33.862456608382026
4756 96 1 0.0 34.07695088444105 15.212308046012955 33.81743710542372
4757 96 1 0.0 34.55110067130737 16.126745650128647 33.75864822581169
4758 96 1 0.0 34.57394887286076 17.31233772333743 33.72967644591062
4759 96 1 0.0 34.158399093934136 18.419721599862644 33.77678338946611
4760 96 1 0.0 33.32428136003271 19.11384939474379 33.9397832332344
4761 96 1 0.0 32.21692269773848 19.319036918619197 34.14167148239994
4762 96 1 0.0 31.09082010941377 19.185220738993127 34.203822954507146
4763 96 1 0.0 30.20411171544312 18.86986249423988 33.944223138534234
4764 96 1 0.0 29.776952864272097 18.529323297964062 33.21758602419567
4765 96 1 0.0 29.743989530681077 18.311691825458993 32.15470685343723
4766 96 1 0.0 29.91000168489659 18.36129397359222 31.011958423499745
4767 96 1 0.0 30.079117210103437 18.822433119639584 30.04634434566321
4768 96 1 0.0 30.110406641972222 19.755230409120788 29.46789729624112
4769 96 1 0.0 30.060190200264206 20.91758425406446 29.318019540302593
4770 96 1 0.0 30.02903669840357 21.999596096418458 29.600284848638175
4771 96 1 0.0 30.11642233186002 22.69334497812331 30.31728861263898
4772 96 1 0.0 30.31954167781363 22.87603606539068 31.3800386492051
4773 96 1 0.0 30.45129401470552 22.758442519816747 32.534516451994776
4774 96 1 0.0 30.30527852817237 22.586269990758296 33.50942134102959
4775 96 1 0.0 29.686885233789578 22.593731313921776 34.045166749912134
4776 96 1 0.0 28.650176956731404 22.772651785254972 34.12922094654532
4777 96 1 0.0 27.485988457095942 22.884069237920844 33.984283590815416
4778 96 1 0.0 26.49456335539218 22.67985045606483 33.84240198480819
4779 96 1 0.0 25.943551305551814 21.953602119239225 33.90164518303924
4780 96 1 0.0 25.826319958785504 20.850176959845843 34.074151352435635
4781 96 1 0.0 25.998901190359106 19.69030016541073 34.12889016938063
4782 96 1 0.0 26.31630297965255 18.796008126180407 33.833763929319666
4783 96 1 0.0 26.633520859911233 18.403540158623034 33.040995913900936
4784 96 1 0.0 26.805500803929554 18.407492010642258 31.938575199124063
4785 96 1 0.0 26.68717645015906 18.617432982982425 30.798054478738948
4786 96 1 0.0 26.13454504426846 18.84342254549588 29.89032735939203
4787 96 1 0.0 25.14190762477064 18.959258215032772 29.40058452539963
4788 96 1 0.0 23.977500700283386 18.964982143592923 29.344266650369786
4789 96 1 0.0 22.941790914100277 18.87548991413744 29.716842311180343
4790 96 1 0.0 22.32563883527527 18.707871089357376 30.509070651849463
4791 96 1 0.0 22.181679898683168 18.533624671507017 31.594919581232396
4792 96 1 0.0 22.31430630069799 18.480947187761448 32.72665434005596
4793 96 1 0.0 22.516299476743598 18.680687005532363 33.650847927056915
4794 96 1 0.0 22.600229057117847 19.24813706079834 34.140943823250545
4795 96 1 0.0 22.565689984977887 20.151570339058043 34.22434805587328
4796 96 1 0.0 22.515228265449736 21.278330352678573 34.06826438025524
4797 96 1 0.0 22.552460690023416 22.51491887257273 33.84135057753343
4798 96 1 0.0 22.73416704593595 23.74962336229366 33.687393744955955
4799 96 1 0.0 22.910218128730033 24.878619831398165 33.640311268670956
4800 96 1 0.0 22.87336721298469 25.80026193377018 33.703690845064166
4801 97 1 0.0 22.41713033570508 26.413199921907133 33.88083822732137
4802 97 1 0.0 21.48126656638941 26.67279715780038 34.12132586173236
4803 97 1 0.0 20.32435760701081 26.658056554381368 34.25758287456687
4804 97 1 0.0 19.246990248089954 26.464270615584603 34.10660468372751
4805 97 1 0.0 18.54299304641297 26.187488933615807 33.49275912577263
4806 97 1 0.0 18.306736600350686 25.946105293959043 32.45799863563107
4807 97 1 0.0 18.405099463407705 25.883998182035103 31.292442056880887
4808 97 1 0.0 18.692564721922274 26.14643468022128 30.299730194150648
4809 97 1 0.0 19.02373681053265 26.856861977738976 29.75680239551012
4810 97 1 0.0 19.25451327746183 27.90620978746501 29.6560615427625
4811 97 1 0.0 19.241573308739916 29.044859882566765 29.81791908405554
4812 97 1 0.0 18.84160694496699 30.021242253124026 30.060398030021926
4813 97 1 0.0 17.970367078416807 30.619310476086635 30.22603029005233
4814 97 1 0.0 16.83318927028228 30.797188775516545 30.277513869714113
4815 97 1 0.0 15.724016865546732 30.56629487919313 30.214315727320134
4816 97 1 0.0 14.936399314279171 29.938229865484203 30.03607338679686
4817 97 1 0.0 14.63703381949356 28.97630338370757 29.791521597374867
4818 97 1 0.0 14.687796873475978 27.868078643639954 29.647373713000327
4819 97 1 0.0 14.90571637171834 26.819400414141988 29.787701405760888
4820 97 1 0.0 15.110156877683773 26.033836734041692 30.39067766900578
4821 97 1 0.0 15.203742177160679 25.633832104670358 31.42429612497125
4822 97 1 0.0 15.19306181605485 25.640532096093416 32.594099492938156
4823 97 1 0.0 15.091247461136323 26.06870796965204 33.589115578760016
4824 97 1 0.0 14.916960275220553 26.919947487575485 34.12293891759908
4825 97 1 0.0 14.755599345539494 28.036720951836195 34.205670726347726
4826 97 1 0.0 14.736816893602956 29.155989744307988 34.044022322004984
4827 97 1 0.0 14.991058356838211 30.01282405076588 33.848229162031814
4828 97 1 0.0 15.619759373682275 30.397800597635335 33.79049129017931
4829 97 1 0.0 16.566363718357376 30.403793339798057 33.83586198851512
4830 97 1 0.0 17.720791667409394 30.226086600450003 33.87921865205958
4831 97 1 0.0 18.972918554112102 30.059917944963644 33.815524056704945
4832 97 1 0.0 20.211489112465085 30.03031364476965 33.616933391376364
4833 97 1 0.0 21.322249110092116 30.07606129673106 33.4603582578598
4834 97 1 0.0 22.190452657874992 30.105416144552823 33.55627844738042
4835 97 1 0.0 22.70373151587272 30.029050511565544 34.110378924406184
4836 97 1 0.0 22.853790088076163 29.863435284359852 35.118469158780925
4837 97 1 0.0 22.77467588954404 29.769745049485547 36.289305945271416
4838 97 1 0.0 22.61070424619183 29.919592483612412 37.31093975466913
4839 97 1 0.0 22.4988962954066 30.470905527510705 37.891443069784266
4840 97 1 0.0 22.476027099082053 31.393538964409846 38.014056491224274
4841 97 1 0.0 22.506013277167643 32.520656767824065 37.86201169393007
4842 97 1 0.0 22.55113023864528 33.68234381089334 37.623045356460885
4843 97 1 0.0 22.578402346937814 34.735820314616866 37.46324961636155
4844 97 1 0.0 22.583619459354086 35.7026714550076 37.41761071829836
4845 97 1 0.0 22.573345691203293 36.666046114874284 37.472008546350494
4846 97 1 0.0 22.55416499565972 37.70915442813214 37.61221453521503
4847 97 1 0.0 22.533737731429724 38.860065779194365 37.79788007078047
4848 97 1 0.0 22.52288073790175 39.98515332794243 37.91206140167485
4849 97 1 0.0 22.532986453464698 40.921304172217035 37.823847295369376
4850 97 1 0.0 22.57500913880043 41.50752589874008 37.40400883223558
4851 98 1 0.0 22.635836975945196 41.69928991998444 36.615714934706176
4852 98 1 0.0 22.66628155773688 41.62665436278188 35.56064479271032
4853 98 1 0.0 22.614190092462465 41.434023004988404 34.351858874349105
4854 98 1 0.0 22.435825556921987 41.26127351750916 33.102093658154104
4855 98 1 0.0 22.219978041973558 41.17700880991742 31.91898360462248
4856 98 1 0.0 22.16094308158062 41.193089627514595 30.90610143430858
4857 98 1 0.0 22.455939404205722 41.31980458455693 30.166907330862692
4858 98 1 0.0 23.25391495109965 41.548874719776734 29.78537203009351
4859 98 1 0.0 24.378064564749305 41.746718676547395 29.713942661224877
4860 98 1 0.0 25.516884454432237 41.72794266282249 29.85068145243295
4861 98 1 0.0 26.358472545437237 41.307016519742504 30.093477015998996
4862 98 1 0.0 26.69549959444197 40.39887542286561 30.336609064714732
4863 98 1 0.0 26.66012050882439 39.24460416304606 30.462641417658364
4864 98 1 0.0 26.453260107539062 38.15135624203306 30.351764584363707
4865 98 1 0.0 26.274496509846887 37.42376858782533 29.88555832641716
4866 98 1 0.0 26.22812252174235 37.188418744305565 29.04389849733965
4867 98 1 0.0 26.26174765958868 37.27909065373611 27.96829504214731
4868 98 1 0.0 26.30839476970457 37.50231019105038 26.81530547835867
4869 98 1 0.0 26.304854899412657 37.671225561225896 25.73478732974375
4870 98 1 0.0 26.256412791745095 37.71935749141448 24.75481392321445
4871 98 1 0.0 26.22805319576714 37.68514498227655 23.79730987794665
4872 98 1 0.0 26.28675990724881 37.61054020880604 22.780645437859985
4873 98 1 0.0 26.477164222519175 37.53613665715518 21.644179334055984
4874 98 1 0.0 26.675470188285477 37.492290022157626 20.485419643711136
4875 98 1 0.0 26.681110243669114 37.50468946339594 19.473961232598704
4876 98 1 0.0 26.293130132542185 37.59899915354256 18.779763081887996
4877 98 1 0.0 25.405451753550093 37.76939212242618 18.509278816520247
4878 98 1 0.0 24.253378023831797 37.89673075355805 18.540458669412985
4879 98 1 0.0 23.14896644168996 37.836401171582686 18.699877192940683
4880 98 1 0.0 22.402474836342037 37.444751964157824 18.815070561452664
4881 98 1 0.0 22.154567856435577 36.66883015080408 18.804194125204802
4882 98 1 0.0 22.23970469947618 35.61944142430861 18.74901880877514
4883 98 1 0.0 22.460195048701756 34.42458503748116 18.748494072334807
4884 98 1 0.0 22.62417857667808 33.21062454068382 18.894123912269855
4885 98 1 0.0 22.66317126176249 32.06930816783814 19.119848774683888
4886 98 1 0.0 22.626391604964905 31.05936071258201 19.209291528674193
4887 98 1 0.0 22.567752551510523 30.238189862557842 18.94007978118195
4888 98 1 0.0 22.535920998902775 29.663915177670514 18.132767605397824
4889 98 1 0.0 22.535307774834873 29.400661628053562 16.970040108752023
4890 98 1 0.0 22.548118262033586 29.515567393255427 15.81628133366185
4891 98 1 0.0 22.556390996363323 30.07579329339521 15.037240568617426
4892 98 1 0.0 22.548160413863886 31.082816915485196 14.872250312828891
4893 98 1 0.0 22.53539051393442 32.275974876498964 15.056115224771874
4894 98 1 0.0 22.53601420790232 33.329216208207704 15.197792190380683
4895 98 1 0.0 22.567794817450856 33.91817751686993 14.907988044824542
4896 98 1 0.0 22.626272632846057 33.93963521388285 14.02672301701936
4897 98 1 0.0 22.66287998754329 33.729280851915966 12.849155299625334
4898 98 1 0.0 22.623846700371242 33.674575836688454 11.72412641331567
4899 98 1 0.0 22.46012820751826 34.14863672058736 10.99099374501238
4900 98 1 0.0 22.240300811215022 35.16753589778522 10.753054090835862
4901 99 1 0.0 22.155748698104706 36.3745561445292 10.867133508124473
4902 99 1 0.0 22.403619681545752 37.395484453213456 11.178490675288852
4903 99 1 0.0 23.148874212601175 37.89634515468892 11.53238898378635
4904 99 1 0.0 24.251477145710204 37.92443678727001 11.774136484177347
4905 99 1 0.0 25.403159792550348 37.73736620648469 11.749065860684903
4906 99 1 0.0 26.29389190438242 37.59494238998781 11.302510055470172
4907 99 1 0.0 26.689315232643075 37.68181049015008 10.35545356858229
4908 99 1 0.0 26.690119493703065 37.84981770712262 9.163838354043998
4909 99 1 0.0 26.489692972262027 37.85873518944091 8.076279892305068
4910 99 1 0.0 26.281081450876275 37.46910024019133 7.4402964524961375
4911 99 1 0.0 26.190593809419322 36.589956060156794 7.390995925960667
4912 99 1 0.0 26.19874068055078 35.45478253678486 7.599439184684511
4913 99 1 0.0 26.26677699833166 34.339908186862495 7.6754000158552405
4914 99 1 0.0 26.35596272831538 33.51726261739667 7.240001578326257
4915 99 1 0.0 26.427706917342867 33.12843734528376 6.2506447681172315
4916 99 1 0.0 26.443588981702558 33.16607408404683 5.049027218979674
4917 99 1 0.0 26.365197650600734 33.61467249307743 3.997853405691471
4918 99 1 0.0 26.166770774232486 34.44783548588109 3.4283852568652775
4919 99 1 0.0 25.957696468853353 35.52273906321576 3.3359349948831656
4920 99 1 0.0 25.929221415746223 36.626041125613 3.5123349550713945
4921 99 1 0.0 26.273735764025513 37.543414518719636 3.74657509816816
4922 99 1 0.0 27.11642653602108 38.092541002514956 3.8636966618162494
4923 99 1 0.0 28.252236638474503 38.24839792887394 3.8659011234751075
4924 99 1 0.0 29.374834194865684 38.03419992695891 3.809719058512258
4925 99 1 0.0 30.178282899411734 37.47325894220592 3.7516335122456708
4926 99 1 0.0 30.486693750929277 36.614956505148356 3.729087409358605
4927 99 1 0.0 30.437343102357833 35.571452001462184 3.7336733884439406
4928 99 1 0.0 30.213693166097322 34.46416334161069 3.7502220537836464
4929 99 1 0.0 29.996999984194254 33.412072782714894 3.7637927557242614
4930 99 1 0.0 29.88957336339083 32.447004461132245 3.767630359665808
4931 99 1 0.0 29.89494820784962 31.491733172812705 3.765221175060117
4932 99 1 0.0 30.010424993633364 30.46215078844758 3.760697926034348
4933 99 1 0.0 30.22532054220844 29.288199708715766 3.7579352594696007
4934 99 1 0.0 30.43232677748643 28.06987365656598 3.7576843545214094
4935 99 1 0.0 30.45993635734919 27.020151417325266 3.7586211039489505
4936 99 1 0.0 30.13548516514632 26.354047597764602 3.7593840069616107
4937 99 1 0.0 29.33938279896678 26.218473977438627 3.7589333013902255
4938 99 1 0.0 28.241751152148506 26.38859096173457 3.7579854924561578
4939 99 1 0.0 27.111075016915123 26.513342211260575 3.757853371953999
4940 99 1 0.0 26.215778083943803 26.2418732881999 3.7598479219284555
4941 99 1 0.0 25.7460351137656 25.392041888725693 3.7640096854494822
4942 99 1 0.0 25.684012157666434 24.23019226543303 3.7670020045081434
4943 99 1 0.0 25.97769431127693 23.096366061540234 3.764933263753845
4944 99 1 0.0 26.574989204668682 22.32604796418439 3.7540773943698302
4945 99 1 0.0 27.42039775666211 22.054320907892983 3.7379885854407973
4946 99 1 0.0 28.453752168501644 22.141627825520235 3.730198234415382
4947 99 1 0.0 29.614546890652257 22.428543265500387 3.7449595236606306
4948 99 1 0.0 30.83947178608382 22.756931113274646 3.793835784615348
4949 99 1 0.0 32.026560962138085 22.986426244279954 3.851316012318292
4950 99 1 0.0 33.04569781667001 22.989605099022118 3.8648901467757995
4951 100 1 0.0 33.766128628672845 22.639337017024147 3.7814370738701366
4952 100 1 0.0 34.088045899499875 21.848075698645804 3.5747056442185388
4953 100 1 0.0 34.099527533028976 20.76860542427297 3.3815817169357083
4954 100 1 0.0 33.9591774579985 19.64392270065325 3.4001874396540157
4955 100 1 0.0 33.82568095453207 18.717140287128135 3.8286585310553507
4956 100 1 0.0 33.804537923927334 18.17796877465139 4.75048687239444
4957 100 1 0.0 33.844943032691525 18.05917640173187 5.912240319529973
4958 100 1 0.0 33.8675223852069 18.36484639609241 6.998905713690241
4959 100 1 0.0 33.79453349913094 19.09725633585517 7.699081921852587
4960 100 1 0.0 33.638303752863706 20.15899440064183 7.9007867206060105
4961 100 1 0.0 33.54645154390459 21.302908555034442 7.791578568479977
4962 100 1 0.0 33.67774284468822 22.269508618189437 7.583697179420276
4963 100 1 0.0 34.18120553567319 22.81422380594384 7.478577480782173
4964 100 1 0.0 35.05205076068514 22.92814068004928 7.506988830385686
4965 100 1 0.0 36.162793464021796 22.79032444078388 7.563564446183551
4966 100 1 0.0 37.38253447508697 22.58507093674653 7.539149454688889
4967 100 1 0.0 38.587081822328074 22.47424921998042 7.356124266409041
4968 100 1 0.0 39.6976142254589 22.46802280112481 7.1501889837536545
4969 100 1 0.0 40.654111219747534 22.513691085766816 7.1454396332182615
4970 100 1 0.0 41.39661301758838 22.558356108931463 7.566223560838348
4971 100 1 0.0 41.86636217789779 22.565442285009926 8.517251343442709
4972 100 1 0.0 42.008513240540545 22.5514808790158 9.713980748048513
4973 100 1 0.0 41.76901500685216 22.54378560247754 10.79283835165563
4974 100 1 0.0 41.09546422135244 22.56925263098936 11.393963191934303
4975 100 1 0.0 40.05274101940253 22.625062291550087 11.421708497587396
4976 100 1 0.0 38.89897182310193 22.65943250175731 11.21576971376505
4977 100 1 0.0 37.91032154067102 22.616010805529136 11.156479105413412
4978 100 1 0.0 37.34958682033668 22.445572981950562 11.604880817609185
4979 100 1 0.0 37.23579151217743 22.228879552545607 12.570296411266035
4980 100 1 0.0 37.37506573781147 22.16021041700889 13.754878095777238
4981 100 1 0.0 37.56638271005915 22.437661688139638 14.850451881399053
4982 100 1 0.0 37.634019065990266 23.2169596533627 15.574711024671466
4983 100 1 0.0 37.593376955238995 24.333796658752338 15.840733037451338
4984 100 1 0.0 37.54715964828838 25.47768194057885 15.650841834427647
4985 100 1 0.0 37.59851639188118 26.33737783381966 15.007821491679405
4986 100 1 0.0 37.79251694552984 26.695489088361242 13.968758731451244
4987 100 1 0.0 37.964780847419426 26.673041392541137 12.786570194611041
4988 100 1 0.0 37.903729216836176 26.467321672885056 11.75830168299348
4989 100 1 0.0 37.399638962460735 26.27473999458761 11.178763342825507
4990 100 1 0.0 36.41883846633895 26.208522021797243 11.13067742647188
4991 100 1 0.0 35.2461728788622 26.23139410109363 11.313051416590625
4992 100 1 0.0 34.20001548239219 26.290240521489093 11.384501705904105
4993 100 1 0.0 33.586495849014334 26.33352110175269 11.016570934663436
4994 100 1 0.0 33.4517520185298 26.34315156466221 10.155286750262437
4995 100 1 0.0 33.59339977951864 26.33302766137466 9.009053160207683
4996 100 1 0.0 33.79910653030033 26.31832530931507 7.796777144725906
4997 100 1 0.0 33.879717632213584 26.312563841615365 6.713470070032134
4998 100 1 0.0 33.84209694120927 26.315252682121415 5.752055557054807
4999 100 1 0.0 33.79166445224643 26.318857212381875 4.80384952916183
5000 100 1 0.0 33.83458646616541 26.315789473684212 3.7593984962406015

Bonds

1 1 1 2
2 1 2 3
3 1 3 4
4 1 4 5
5 1 5 6
6 1 6 7
7 1 7 8
8 1 8 9
9 1 9 10
10 1 10 11
11 1 11 12
12 1 12 13
13 1 13 14
14 1 14 15
15 1 15 16
16 1 16 17
17 1 17 18
18 1 18 19
19 1 19 20
20 1 20 21
21 1 21 22
22 1 22 23
23 1 23 24
24 1 24 25
25 1 25 26
26 1 26 27
27 1 27 28
28 1 28 29
29 1 29 30
30 1 30 31
31 1 31 32
32 1 32 33
33 1 33 34
34 1 34 35
35 1 35 36
36 1 36 37
37 1 37 38
38 1 38 39
39 1 39 40
40 1 40 41
41 1 41 42
42 1 42 43
43 1 43 44
44 1 44 45
45 1 45 46
46 1 46 47
47 1 47 48
48 1 48 49
49 1 49 50
50 1 51 52
51 1 52 53
52 1 53 54
53 1 54 55
54 1 55 56
55 1 56 57
56 1 57 58
57 1 58 59
58 1 59 60
59 1 60 61
60 1 61 62
61 1 62 63
62 1 63 64
63 1 64 65
64 1 65 66
65 1 66 67
66 1 67 68
67 1 68 69
68 1 69 70
69 1 70 71
70 1 71 72
71 1 72 73
72 1 73 74
73 1 74 75
74 1 75 76
75 1 76 77
76 1 77 78
77 1 78 79
78 1 79 80
79 1 80 81
80 1 81 82
81 1 82 83
82 1 83 84
83 1 84 85
84 1 85 86
85 1 86 87
86 1 87 88
87 1 88 89
88 1 89 90
89 1 90 91
90 1 91 92
91 1 92 93
92 1 93 94
93 1 94 95
94 1 95 96
95 1 96 97
96 1 97 98
97 1 98 99
98 1 99 100
99 1 101 102
100 1 102 103
101 1 103 104
102 1 104 105
103 1 105 106
104 1 106 107
105 1 107 108
106 1 108 109
107 1 109 110
108 1 110 111
109 1 111 112
110 1 112 113
111 1 113 114
112 1 114 115
113 1 115 116
114 1 116 117
115 1 117 118
116 1 118 119
117 1 119 120
118 1 120 121
119 1 121 122
120 1 122 123
121 1 123 124
122 1 124 125
123 1 125 126
124 1 126 127
125 1 127 128
126 1 128 129
127 1 129 130
128 1 130 131
129 1 131 132
130 1 132 133
131 1 133 134
132 1 134 135
133 1 135 136
134 1 136 137
135 1 137 138
136 1 138 139
137 1 139 140
138 1 140 141
139 1 141 142
140 1 142 143
141 1 143 144
142 1 144 145
143 1 145 146
144 1 146 147
145 1 147 148
146 1 148 149
147 1 149 150
148 1 151 152
149 1 152 153
150 1 153 154
151 1 154 155
152 1 155 156
153 1 156 157
154 1 157 158
155 1 158 159
156 1 159 160
157 1 160 161
158 1 161 162
159 1 162 163
160 1 163 164
161 1 164 165
162 1 165 166
163 1 166 167
164 1 167 168
165 1 168 169
166 1 169 170
167 1 170 171
168 1 171 172
169 1 172 173
170 1 173 174
171 1 174 175
172 1 175 176
173 1 176 177
174 1 177 178
175 1 178 179
176 1 179 180
177 1 180 181
178 1 181 182
179 1 182 183
180 1 183 184
181 1 184 185
182 1 185 186
183 1 186 187
184 1 187 188
185 1 188 189
186 1 189 190
187 1 190 191
188 1 191 192
189 1 192 193
190 1 193 194
191 1 194 195
192 1 195 196
193 1 196 197
194 1 197 198
195 1 198 199
196 1 199 200
197 1 201 202
198 1 202 203
199 1 203 204
200 1 204 205
201 1 205 206
202 1 206 207
203 1 207 208
204 1 208 209
205 1 209 210
206 1 210 211
207 1 211 212
208 1 212 213
209 1 213 214
210 1 214 215
211 1 215 216
212 1 216 217
213 1 217 218
214 1 218 219
215 1 219 220
216 1 220 221
217 1 221 222
218 1 222 223
219 1 223 224
220 1 224 225
221 1 225 226
222 1 226 227
223 1 227 228
224 1 228 229
225 1 229 230
226 1 230 231
227 1 231 232
228 1 232 233
229 1 233 234
230 1 234 235
231 1 235 236
232 1 236 237
233 1 237 238
234 1 238 239
235 1 239 240
236 1 240 241
237 1 241 242
238 1 242 243
239 1 243 244
240 1 244 245
241 1 245 246
242 1 246 247
243 1 247 248
244 1 248 249
245 1 249 250
246 1 251 252
247 1 252 253
248 1 253 254
249 1 254 255
250 1 255 256
251 1 256 257
252 1 257 258
253 1 258 259
254 1 259 260
255 1 260 261
256 1 261 262
257 1 262 263
258 1 263 264
259 1 264 265
260 1 265 266
261 1 266 267
262 1 267 268
263 1 268 269
264 1 269 270
265 1 270 271
266 1 271 272
267 1 272 273
268 1 273 274
269 1 274 275
270 1 275 276
271 1 276 277
272 1 277 278
273 1 278 279
274 1 279 280
275 1 280 281
276 1 281 282
277 1 282 283
278 1 283 284
279 1 284 285
280 1 285 286
281 1 286 287
282 1 287 288
283 1 288 289
284 1 289 290
285 1 290 291
286 1 291 292
287 1 292 293
288 1 293 294
289 1 294 295
290 1 295 296
291 1 296 297
292 1 297 298
293 1 298 299
294 1 299 300
295 1 301 302
296 1 302 303
297 1 303 304
298 1 304 305
299 1 305 306
300 1 306 307
301 1 307 308
302 1 308 309
303 1 309 310
304 1 310 311
305 1 311 312
306 1 312 313
307 1 313 314
308 1 314 315
309 1 315 316
310 1 316 317
311 1 317 318
312 1 318 319
313 1 319 320
314 1 320 321
315 1 321 322
316 1 322 323
317 1 323 324
318 1 324 325
319 1 325 326
320 1 326 327
321 1 327 328
322 1 328 329
323 1 329 330
324 1 330 331
325 1 331 332
326 1 332 333
327 1 333 334
328 1 334 335
329 1 335 336
330 1 336 337
331 1 337 338
332 1 338 339
333 1 339 340
334 1 340 341
335 1 341 342
336 1 342 343
337 1 343 344
338 1 344 345
339 1 345 346
340 1 346 347
341 1 347 348
342 1 348 349
343 1 349 350
344 1 351 352
345 1 352 353
346 1 353 354
347 1 354 355
348 1 355 356
349 1 356 357
350 1 357 358
351 1 358 359
352 1 359 360
353 1 360 361
354 1 361 362
355 1 362 363
356 1 363 364
357 1 364 365
358 1 365 366
359 1 366 367
360 1 367 368
361 1 368 369
362 1 369 370
363 1 370 371
364 1 371 372
365 1 372 373
366 1 373 374
367 1 374 375
368 1 375 376
369 1 376 377
370 1 377 378
371 1 378 379
372 1 379 380
373 1 380 381
374 1 381 382
375 1 382 383
376 1 383 384
377 1 384 385
378 1 385 386
379 1 386 387
380 1 387 388
381 1 388 389
382 1 389 390
383 1 390 391
384 1 391 392
385 1 392 393
386 1 393 394
387 1 394 395
388 1 395 396
389 1 396 397
390 1 397 398
391 1 398 399
392 1 399 400
393 1 401 402
394 1 402 403
395 1 403 404
396 1 404 405
397 1 405 406
398 1 406 407
399 1 407 408
400 1 408 409
401 1 409 410
402 1 410 411
403 1 411 412
404 1 412 413
405 1 413 414
406 1 414 415
407 1 415 416
408 1 416 417
409 1 417 418
410 1 418 419
411 1 419 420
412 1 420 421
413 1 421 422
414 1 422 423
415 1 423 424
416 1 424 425
417 1 425 426
418 1 426 427
419 1 427 428
420 1 428 429
421 1 429 430
422 1 430 431
423 1 431 432
424 1 432 433
425 1 433 434
426 1 434 435
427 1 435 436
428 1 436 437
429 1 437 438
430 1 438 439
431 1 439 440
432 1 440 441
433 1 441 442
434 1 442 443
435 1 443 444
436 1 444 445
437 1 445 446
438 1 446 447
439 1 447 448
440 1 448 449
441 1 449 450
442 1 451 452
443 1 452 453
444 1 453 454
445 1 454 455
446 1 455 456
447 1 456 457
448 1 457 458
449 1 458 459
450 1 459 460
451 1 460 461
452 1 461 462
453 1 462 463
454 1 463 464
455 1 464 465
456 1 465 466
457 1 466 467
458 1 467 468
459 1 468 469
460 1 469 470
461 1 470 471
462 1 471 472
463 1 472 473
464 1 473 474
465 1 474 475
466 1 475 476
467 1 476 477
468 1 477 478
469 1 478 479
470 1 479 480
471 1 480 481
472 1 481 482
473 1 482 483
474 1 483 484
475 1 484 485
476 1 485 486
477 1 486 487
478 1 487 488
479 1 488 489
480 1 489 490
481 1 490 491
482 1 491 492
483 1 492 493
484 1 493 494
485 1 494 495
486 1 495 496
487 1 496 497
488 1 497 498
489 1 498 499
490 1 499 500
491 1 501 502
492 1 502 503
493 1 503 504
494 1 504 505
495 1 505 506
496 1 506 507
497 1 507 508
498 1 508 509
499 1 509 510
500 1 510 511
501 1 511 512
502 1 512 513
503 1 513 514
504 1 514 515
505 1 515 516
506 1 516 517
507 1 517 518
508 1 518 519
509 1 519 520
510 1 520 521
511 1 521 522
512 1 522 523
513 1 523 524
514 1 524 525
515 1 525 526
516 1 526 527
517 1 527 528
518 1 528 529
519 1 529 530
520 1 530 531
521 1 531 532
522 1 532 533
523 1 533 534
524 1 534 535
525 1 535 536
526 1 536 537
527 1 537 538
528 1 538 539
529 1 539 540
530 1 540 541
531 1 541 542
532 1 542 543
533 1 543 544
534 1 544 545
535 1 545 546
536 1 546 547
537 1 547 548
538 1 548 549
539 1 549 550
540 1 551 552
541 1 552 553
542 1 553 554
543 1 554 555
544 1 555 556
545 1 556 557
546 1 557 558
547 1 558 559
548 1 559 560
549 1 560 561
550 1 561 562
551 1 562 563
552 1 563 564
553 1 564 565
554 1 565 566
555 1 566 567
556 1 567 568
557 1 568 569
558 1 569 570
559 1 570 571
560 1 571 572
561 1 572 573
562 1 573 574
563 1 574 575
564 1 575 576
565 1 576 577
566 1 577 578
567 1 578 579
568 1 579 580
569 1 580 581
570 1 581 582
571 1 582 583
572 1 583 584
573 1 584 585
574 1 585 586
575 1 586 587
576 1 587 588
577 1 588 589
578 1 589 590
579 1 590 591
580 1 591 592
581 1 592 593
582 1 593 594
583 1 594 595
584 1 595 596
585 1 596 597
586 1 597 598
587 1 598 599
588 1 599 600
589 1 601 602
590 1 602 603
591 1 603 604
592 1 604 605
593 1 605 606
594 1 606 607
595 1 607 608
596 1 608 609
597 1 609 610
598 1 610 611
599 1 611 612
600 1 612 613
601 1 613 614
602 1 614 615
603 1 615 616
604 1 616 617
605 1 617 618
606 1 618 619
607 1 619 620
608 1 620 621
609 1 621 622
610 1 622 623
611 1 623 624
612 1 624 625
613 1 625 626
614 1 626 627
615 1 627 628
616 1 628 629
617 1 629 630
618 1 630 631
619 1 631 632
620 1 632 633
621 1 633 634
622 1 634 635
623 1 635 636
624 1 636 637
625 1 637 638
626 1 638 639
627 1 639 640
628 1 640 641
629 1 641 642
630 1 642 643
631 1 643 644
632 1 644 645
633 1 645 646
634 1 646 647
635 1 647 648
636 1 648 649
637 1 649 650
638 1 651 652
639 1 652 653
640 1 653 654
641 1 654 655
642 1 655 656
643 1 656 657
644 1 657 658
645 1 658 659
646 1 659 660
647 1 660 661
648 1 661 662
649 1 662 663
650 1 663 664
651 1 664 665
652 1 665 666
653 1 666 667
654 1 667 668
655 1 668 669
656 1 669 670
657 1 670 671
658 1 671 672
659 1 672 673
660 1 673 674
661 1 674 675
662 1 675 676
663 1 676 677
664 1 677 678
665 1 678 679
666 1 679 680
667 1 680 681
668 1 681 682
669 1 682 683
670 1 683 684
671 1 684 685
672 1 685 686
673 1 686 687
674 1 687 688
675 1 688 689
676 1 689 690
677 1 690 691
678 1 691 692
679 1 692 693
680 1 693 694
681 1 694 695
682 1 695 696
683 1 696 697
684 1 697 698
685 1 698 699
686 1 699 700
687 1 701 702
688 1 702 703
689 1 703 704
690 1 704 705
691 1 705 706
692 1 706 707
693 1 707 708
694 1 708 709
695 1 709 710
696 1 710 711
697 1 711 712
698 1 712 713
699 1 713 714
700 1 714 715
701 1 715 716
702 1 716 717
703 1 717 718
704 1 718 719
705 1 719 720
706 1 720 721
707 1 721 722
708 1 722 723
709 1 723 724
710 1 724 725
711 1 725 726
712 1 726 727
713 1 727 728
714 1 728 729
715 1 729 730
716 1 730 731
717 1 731 732
718 1 732 733
719 1 733 734
720 1 734 735
721 1 735 736
722 1 736 737
723 1 737 738
724 1 738 739
725 1 739 740
726 1 740 741
727 1 741 742
728 1 742 743
729 1 743 744
730 1 744 745
731 1 745 746
732 1 746 747
733 1 747 748
734 1 748 749
735 1 749 750
736 1 751 752
737 1 752 753
738 1 753 754
739 1 754 755
740 1 755 756
741 1 756 757
742 1 757 758
743 1 758 759
744 1 759 760
745 1 760 761
746 1 761 762
747 1 762 763
748 1 763 764
749 1 764 765
750 1 765 766
751 1 766 767
752 1 767 768
753 1 768 769
754 1 769 770
755 1 770 771
756 1 771 772
757 1 772 773
758 1 773 774
759 1 774 775
760 1 775 776
761 1 776 777
762 1 777 778
763 1 778 779
764 1 779 780
765 1 780 781
766 1 781 782
767 1 782 783
768 1 783 784
769 1 784 785
770 1 785 786
771 1 786 787
772 1 787 788
773 1 788 789
774 1 789 790
775 1 790 791
776 1 791 792
777 1 792 793
778 1 793 794
779 1 794 795
780 1 795 796
781 1 796 797
782 1 797 798
783 1 798 799
784 1 799 800
785 1 801 802
786 1 802 803
787 1 803 804
788 1 804 805
789 1 805 806
790 1 806 807
791 1 807 808
792 1 808 809
793 1 809 810
794 1 810 811
795 1 811 812
796 1 812 813
797 1 813 814
798 1 814 815
799 1 815 816
800 1 816 817
801 1 817 818
802 1 818 819
803 1 819 820
804 1 820 821
805 1 821 822
806 1 822 823
807 1 823 824
808 1 824 825
809 1 825 826
810 1 826 827
811 1 827 828
812 1 828 829
813 1 829 830
814 1 830 831
815 1 831 832
816 1 832 833
817 1 833 834
818 1 834 835
819 1 835 836
820 1 836 837
821 1 837 838
822 1 838 839
823 1 839 840
824 1 840 841
825 1 841 842
826 1 842 843
827 1 843 844
828 1 844 845
829 1 845 846
830 1 846 847
831 1 847 848
832 1 848 849
833 1 849 850
834 1 851 852
835 1 852 853
836 1 853 854
837 1 854 855
838 1 855 856
839 1 856 857
840 1 857 858
841 1 858 859
842 1 859 860
843 1 860 861
844 1 861 862
845 1 862 863
846 1 863 864
847 1 864 865
848 1 865 866
849 1 866 867
850 1 867 868
851 1 868 869
852 1 869 870
853 1 870 871
854 1 871 872
855 1 872 873
856 1 873 874
857 1 874 875
858 1 875 876
859 1 876 877
860 1 877 878
861 1 878 879
862 1 879 880
863 1 880 881
864 1 881 882
865 1 882 883
866 1 883 884
867 1 884 885
868 1 885 886
869 1 886 887
870 1 887 888
871 1 888 889
872 1 889 890
873 1 890 891
874 1 891 892
875 1 892 893
876 1 893 894
877 1 894 895
878 1 895 896
879 1 896 897
880 1 897 898
881 1 898 899
882 1 899 900
883 1 901 902
884 1 902 903
885 1 903 904
886 1 904 905
887 1 905 906
888 1 906 907
889 1 907 908
890 1 908 909
891 1 909 910
892 1 910 911
893 1 911 912
894 1 912 913
895 1 913 914
896 1 914 915
897 1 915 916
898 1 916 917
899 1 917 918
900 1 918 919
901 1 919 920
902 1 920 921
903 1 921 922
904 1 922 923
905 1 923 924
906 1 924 925
907 1 925 926
908 1 926 927
909 1 927 928
910 1 928 929
911 1 929 930
912 1 930 931
913 1 931 932
914 1 932 933
915 1 933 934
916 1 934 935
917 1 935 936
918 1 936 937
919 1 937 938
920 1 938 939
921 1 939 940
922 1 940 941
923 1 941 942
924 1 942 943
925 1 943 944
926 1 944 945
927 1 945 946
928 1 946 947
929 1 947 948
930 1 948 949
931 1 949 950
932 1 951 952
933 1 952 953
934 1 953 954
935 1 954 955
936 1 955 956
937 1 956 957
938 1 957 958
939 1 958 959
940 1 959 960
941 1 960 961
942 1 961 962
943 1 962 963
944 1 963 964
945 1 964 965
946 1 965 966
947 1 966 967
948 1 967 968
949 1 968 969
950 1 969 970
951 1 970 971
952 1 971 972
953 1 972 973
954 1 973 974
955 1 974 975
956 1 975 976
957 1 976 977
958 1 977 978
959 1 978 979
960 1 979 980
961 1 980 981
962 1 981 982
963 1 982 983
964 1 983 984
965 1 984 985
966 1 985 986
967 1 986 987
968 1 987 988
969 1 988 989
970 1 989 990
971 1 990 991
972 1 991 992
973 1 992 993
974 1 993 994
975 1 994 995
976 1 995 996
977 1 996 997
978 1 997 998
979 1 998 999
980 1 999 1000
981 1 1001 1002
982 1 1002 1003
983 1 1003 1004
984 1 1004 1005
985 1 1005 1006
986 1 1006 1007
987 1 1007 1008
988 1 1008 1009
989 1 1009 1010
990 1 1010 1011
991 1 1011 1012
992 1 1012 1013
993 1 1013 1014
994 1 1014 1015
995 1 1015 1016
996 1 1016 1017
997 1 1017 1018
998 1 1018 1019
999 1 1019 1020
1000 1 1020 1021
1001 1 1021 1022
1002 1 1022 1023
1003 1 1023 1024
1004 1 1024 1025
1005 1 1025 1026
1006 1 1026 1027
1007 1 1027 1028
1008 1 1028 1029
1009 1 1029 1030
1010 1 1030 1031
1011 1 1031 1032
1012 1 1032 1033
1013 1 1033 1034
1014 1 1034 1035
1015 1 1035 1036
1016 1 1036 1037
1017 1 1037 1038
1018 1 1038 1039
1019 1 1039 1040
1020 1 1040 1041
1021 1 1041 1042
1022 1 1042 1043
1023 1 1043 1044
1024 1 1044 1045
1025 1 1045 1046
1026 1 1046 1047
1027 1 1047 1048
1028 1 1048 1049
1029 1 1049 1050
1030 1 1051 1052
1031 1 1052 1053
1032 1 1053 1054
1033 1 1054 1055
1034 1 1055 1056
1035 1 1056 1057
1036 1 1057 1058
1037 1 1058 1059
1038 1 1059 1060
1039 1 1060 1061
1040 1 1061 1062
1041 1 1062 1063
1042 1 1063 1064
1043 1 1064 1065
1044 1 1065 1066
1045 1 1066 1067
1046 1 1067 1068
1047 1 1068 1069
1048 1 1069 1070
1049 1 1070 1071
1050 1 1071 1072
1051 1 1072 1073
1052 1 1073 1074
1053 1 1074 1075
1054 1 1075 1076
1055 1 1076 1077
1056 1 1077 1078
1057 1 1078 1079
1058 1 1079 1080
1059 1 1080 1081
1060 1 1081 1082
1061 1 1082 1083
1062 1 1083 1084
1063 1 1084 1085
1064 1 1085 1086
1065 1 1086 1087
1066 1 1087 1088
1067 1 1088 1089
1068 1 1089 1090
1069 1 1090 1091
1070 1 1091 1092
1071 1 1092 1093
1072 1 1093 1094
1073 1 1094 1095
1074 1 1095 1096
1075 1 1096 1097
1076 1 1097 1098
1077 1 1098 1099
1078 1 1099 1100
1079 1 1101 1102
1080 1 1102 1103
1081 1 1103 1104
1082 1 1104 1105
1083 1 1105 1106
1084 1 1106 1107
1085 1 1107 1108
1086 1 1108 1109
1087 1 1109 1110
1088 1 1110 1111
1089 1 1111 1112
1090 1 1112 1113
1091 1 1113 1114
1092 1 1114 1115
1093 1 1115 1116
1094 1 1116 1117
1095 1 1117 1118
1096 1 1118 1119
1097 1 1119 1120
1098 1 1120 1121
1099 1 1121 1122
1100 1 1122 1123
1101 1 1123 1124
1102 1 1124 1125
1103 1 1125 1126
1104 1 1126 1127
1105 1 1127 1128
1106 1 1128 1129
1107 1 1129 1130
1108 1 1130 1131
1109 1 1131 1132
1110 1 1132 1133
1111 1 1133 1134
1112 1 1134 1135
1113 1 1135 1136
1114 1 1136 1137
1115 1 1137 1138
1116 1 1138 1139
1117 1 1139 1140
1118 1 1140 1141
1119 1 1141 1142
1120 1 1142 1143
1121 1 1143 1144
1122 1 1144 1145
1123 1 1145 1146
1124 1 1146 1147
1125 1 1147 1148
1126 1 1148 1149
1127 1 1149 1150
1128 1 1151 1152
1129 1 1152 1153
1130 1 1153 1154
1131 1 1154 1155
1132 1 1155 1156
1133 1 1156 1157
1134 1 1157 1158
1135 1 1158 1159
1136 1 1159 1160
1137 1 1160 1161
1138 1 1161 1162
1139 1 1162 1163
1140 1 1163 1164
1141 1 1164 1165
1142 1 1165 1166
1143 1 1166 1167
1144 1 1167 1168
1145 1 1168 1169
1146 1 1169 1170
1147 1 1170 1171
1148 1 1171 1172
1149 1 1172 1173
1150 1 1173 1174
1151 1 1174 1175
1152 1 1175 1176
1153 1 1176 1177
1154 1 1177 1178
1155 1 1178 1179
1156 1 1179 1180
1157 1 1180 1181
1158 1 1181 1182
1159 1 1182 1183
1160 1 1183 1184
1161 1 1184 1185
1162 1 1185 1186
1163 1 1186 1187
1164 1 1187 1188
1165 1 1188 1189
1166 1 1189 1190
1167 1 1190 1191
1168 1 1191 1192
1169 1 1192 1193
1170 1 1193 1194
1171 1 1194 1195
1172 1 1195 1196
1173 1 1196 1197
1174 1 1197 1198
1175 1 1198 1199
1176 1 1199 1200
1177 1 1201 1202
1178 1 1202 1203
1179 1 1203 1204
1180 1 1204 1205
1181 1 1205 1206
1182 1 1206 1207
1183 1 1207 1208
1184 1 1208 1209
1185 1 1209 1210
1186 1 1210 1211
1187 1 1211 1212
1188 1 1212 1213
1189 1 1213 1214
1190 1 1214 1215
1191 1 1215 1216
1192 1 1216 1217
1193 1 1217 1218
1194 1 1218 1219
1195 1 1219 1220
1196 1 1220 1221
1197 1 1221 1222
1198 1 1222 1223
1199 1 1223 1224
1200 1 1224 1225
1201 1 1225 1226
1202 1 1226 1227
1203 1 1227 1228
1204 1 1228 1229
1205 1 1229 1230
1206 1 1230 1231
1207 1 1231 1232
1208 1 1232 1233
1209 1 1233 1234
1210 1 1234 1235
1211 1 1235 1236
1212 1 1236 1237
1213 1 1237 1238
1214 1 1238 1239
1215 1 1239 1240
1216 1 1240 1241
1217 1 1241 1242
1218 1 1242 1243
1219 1 1243 1244
1220 1 1244 1245
1221 1 1245 1246
1222 1 1246 1247
1223 1 1247 1248
1224 1 1248 1249
1225 1 1249 1250
1226 1 1251 1252
1227 1 1252 1253
1228 1 1253 1254
1229 1 1254 1255
1230 1 1255 1256
1231 1 1256 1257
1232 1 1257 1258
1233 1 1258 1259
1234 1 1259 1260
1235 1 1260 1261
1236 1 1261 1262
1237 1 1262 1263
1238 1 1263 1264
1239 1 1264 1265
1240 1 1265 1266
1241 1 1266 1267
1242 1 1267 1268
1243 1 1268 1269
1244 1 1269 1270
1245 1 1270 1271
1246 1 1271 1272
1247 1 1272 1273
1248 1 1273 1274
1249 1 1274 1275
1250 1 1275 1276
1251 1 1276 1277
1252 1 1277 1278
1253 1 1278 1279
1254 1 1279 1280
1255 1 1280 1281
1256 1 1281 1282
1257 1 1282 1283
1258 1 1283 1284
1259 1 1284 1285
1260 1 1285 1286
1261 1 1286 1287
1262 1 1287 1288
1263 1 1288 1289
1264 1 1289 1290
1265 1 1290 1291
1266 1 1291 1292
1267 1 1292 1293
1268 1 1293 1294
1269 1 1294 1295
1270 1 1295 1296
1271 1 1296 1297
1272 1 1297 1298
1273 1 1298 1299
1274 1 1299 1300
1275 1 1301 1302
1276 1 1302 1303
1277 1 1303 1304
1278 1 1304 1305
1279 1 1305 1306
1280 1 1306 1307
1281 1 1307 1308
1282 1 1308 1309
1283 1 1309 1310
1284 1 1310 1311
1285 1 1311 1312
1286 1 1312 1313
1287 1 1313 1314
1288 1 1314 1315
1289 1 1315 1316
1290 1 1316 1317
1291 1 1317 1318
1292 1 1318 1319
1293 1 1319 1320
1294 1 1320 1321
1295 1 1321 1322
1296 1 1322 1323
1297 1 1323 1324
1298 1 1324 1325
1299 1 1325 1326
1300 1 1326 1327
1301 1 1327 1328
1302 1 1328 1329
1303 1 1329 1330
1304 1 1330 1331
1305 1 1331 1332
1306 1 1332 1333
1307 1 1333 1334
1308 1 1334 1335
1309 1 1335 1336
1310 1 1336 1337
1311 1 1337 1338
1312 1 1338 1339
1313 1 1339 1340
1314 1 1340 1341
1315 1 1341 1342
1316 1 1342 1343
1317 1 1343 1344
1318 1 1344 1345
1319 1 1345 1346
1320 1 1346 1347
1321 1 1347 1348
1322 1 1348 1349
1323 1 1349 1350
1324 1 1351 1352
1325 1 1352 1353
1326 1 1353 1354
1327 1 1354 1355
1328 1 1355 1356
1329 1 1356 1357
1330 1 1357 1358
1331 1 1358 1359
1332 1 1359 1360
1333 1 1360 1361
1334 1 1361 1362
1335 1 1362 1363
1336 1 1363 1364
1337 1 1364 1365
1338 1 1365 1366
1339 1 1366 1367
1340 1 1367 1368
1341 1 1368 1369
1342 1 1369 1370
1343 1 1370 1371
1344 1 1371 1372
1345 1 1372 1373
1346 1 1373 1374
1347 1 1374 1375
1348 1 1375 1376
1349 1 1376 1377
1350 1 1377 1378
1351 1 1378 1379
1352 1 1379 1380
1353 1 1380 1381
1354 1 1381 1382
1355 1 1382 1383
1356 1 1383 1384
1357 1 1384 1385
1358 1 1385 1386
1359 1 1386 1387
1360 1 1387 1388
1361 1 1388 1389
1362 1 1389 1390
1363 1 1390 1391
1364 1 1391 1392
1365 1 1392 1393
1366 1 1393 1394
1367 1 1394 1395
1368 1 1395 1396
1369 1 1396 1397
1370 1 1397 1398
1371 1 1398 1399
1372 1 1399 1400
1373 1 1401 1402
1374 1 1402 1403
1375 1 1403 1404
1376 1 1404 1405
1377 1 1405 1406
1378 1 1406 1407
1379 1 1407 1408
1380 1 1408 1409
1381 1 1409 1410
1382 1 1410 1411
1383 1 1411 1412
1384 1 1412 1413
1385 1 1413 1414
1386 1 1414 1415
1387 1 1415 1416
1388 1 1416 1417
1389 1 1417 1418
1390 1 1418 1419
1391 1 1419 1420
1392 1 1420 1421
1393 1 1421 1422
1394 1 1422 1423
1395 1 1423 1424
1396 1 1424 1425
1397 1 1425 1426
1398 1 1426 1427
1399 1 1427 1428
1400 1 1428 1429
1401 1 1429 1430
1402 1 1430 1431
1403 1 1431 1432
1404 1 1432 1433
1405 1 1433 1434
1406 1 1434 1435
1407 1 1435 1436
1408 1 1436 1437
1409 1 1437 1438
1410 1 1438 1439
1411 1 1439 1440
1412 1 1440 1441
1413 1 1441 1442
1414 1 1442 1443
1415 1 1443 1444
1416 1 1444 1445
1417 1 1445 1446
1418 1 1446 1447
1419 1 1447 1448
1420 1 1448 1449
1421 1 1449 1450
1422 1 1451 1452
1423 1 1452 1453
1424 1 1453 1454
1425 1 1454 1455
1426 1 1455 1456
1427 1 1456 1457
1428 1 1457 1458
1429 1 1458 1459
1430 1 1459 1460
1431 1 1460 1461
1432 1 1461 1462
1433 1 1462 1463
1434 1 1463 1464
1435 1 1464 1465
1436 1 1465 1466
1437 1 1466 1467
1438 1 1467 1468
1439 1 1468 1469
1440 1 1469 1470
1441 1 1470 1471
1442 1 1471 1472
1443 1 1472 1473
1444 1 1473 1474
1445 1 1474 1475
1446 1 1475 1476
1447 1 1476 1477
1448 1 1477 1478
1449 1 1478 1479
1450 1 1479 1480
1451 1 1480 1481
1452 1 1481 1482
1453 1 1482 1483
1454 1 1483 1484
1455 1 1484 1485
1456 1 1485 1486
1457 1 1486 1487
1458 1 1487 1488
1459 1 1488 1489
1460 1 1489 1490
1461 1 1490 1491
1462 1 1491 1492
1463 1 1492 1493
1464 1 1493 1494
1465 1 1494 1495
1466 1 1495 1496
1467 1 1496 1497
1468 1 1497 1498
1469 1 1498 1499
1470 1 1499 1500
1471 1 1501 1502
1472 1 1502 1503
1473 1 1503 1504
1474 1 1504 1505
1475 1 1505 1506
1476 1 1506 1507
1477 1 1507 1508
1478 1 1508 1509
1479 1 1509 1510
1480 1 1510 1511
1481 1 1511 1512
1482 1 1512 1513
1483 1 1513 1514
1484 1 1514 1515
1485 1 1515 1516
1486 1 1516 1517
1487 1 1517 1518
1488 1 1518 1519
1489 1 1519 1520
1490 1 1520 1521
1491 1 1521 1522
1492 1 1522 1523
1493 1 1523 1524
1494 1 1524 1525
1495 1 1525 1526
1496 1 1526 1527
1497 1 1527 1528
1498 1 1528 1529
1499 1 1529 1530
1500 1 1530 1531
1501 1 1531 1532
1502 1 1532 1533
1503 1 1533 1534
1504 1 1534 1535
1505 1 1535 1536
1506 1 1536 1537
1507 1 1537 1538
1508 1 1538 1539
1509 1 1539 1540
1510 1 1540 1541
1511 1 1541 1542
1512 1 1542 1543
1513 1 1543 1544
1514 1 1544 1545
1515 1 1545 1546
1516 1 1546 1547
1517 1 1547 1548
1518 1 1548 1549
1519 1 1549 1550
1520 1 1551 1552
1521 1 1552 1553
1522 1 1553 1554
1523 1 1554 1555
1524 1 1555 1556
1525 1 1556 1557
1526 1 1557 1558
1527 1 1558 1559
1528 1 1559 1560
1529 1 1560 1561
1530 1 1561 1562
1531 1 1562 1563
1532 1 1563 1564
1533 1 1564 1565
1534 1 1565 1566
1535 1 1566 1567
1536 1 1567 1568
1537 1 1568 1569
1538 1 1569 1570
1539 1 1570 1571
1540 1 1571 1572
1541 1 1572 1573
1542 1 1573 1574
1543 1 1574 1575
1544 1 1575 1576
1545 1 1576 1577
1546 1 1577 1578
1547 1 1578 1579
1548 1 1579 1580
1549 1 1580 1581
1550 1 1581 1582
1551 1 1582 1583
1552 1 1583 1584
1553 1 1584 1585
1554 1 1585 1586
1555 1 1586 1587
1556 1 1587 1588
1557 1 1588 1589
1558 1 1589 1590
1559 1 1590 1591
1560 1 1591 1592
1561 1 1592 1593
1562 1 1593 1594
1563 1 1594 1595
1564 1 1595 1596
1565 1 1596 1597
1566 1 1597 1598
1567 1 1598 1599
1568 1 1599 1600
1569 1 1601 1602
1570 1 1602 1603
1571 1 1603 1604
1572 1 1604 1605
1573 1 1605 1606
1574 1 1606 1607
1575 1 1607 1608
1576 1 1608 1609
1577 1 1609 1610
1578 1 1610 1611
1579 1 1611 1612
1580 1 1612 1613
1581 1 1613 1614
1582 1 1614 1615
1583 1 1615 1616
1584 1 1616 1617
1585 1 1617 1618
1586 1 1618 1619
1587 1 1619 1620
1588 1 1620 1621
1589 1 1621 1622
1590 1 1622 1623
1591 1 1623 1624
1592 1 1624 1625
1593 1 1625 1626
1594 1 1626 1627
1595 1 1627 1628
1596 1 1628 1629
1597 1 1629 1630
1598 1 1630 1631
1599 1 1631 1632
1600 1 1632 1633
1601 1 1633 1634
1602 1 1634 1635
1603 1 1635 1636
1604 1 1636 1637
1605 1 1637 1638
1606 1 1638 1639
1607 1 1639 1640
1608 1 1640 1641
1609 1 1641 1642
1610 1 1642 1643
1611 1 1643 1644
1612 1 1644 1645
1613 1 1645 1646
1614 1 1646 1647
1615 1 1647 1648
1616 1 1648 1649
1617 1 1649 1650
1618 1 1651 1652
1619 1 1652 1653
1620 1 1653 1654
1621 1 1654 1655
1622 1 1655 1656
1623 1 1656 1657
1624 1 1657 1658
1625 1 1658 1659
1626 1 1659 1660
1627 1 1660 1661
1628 1 1661 1662
1629 1 1662 1663
1630 1 1663 1664
1631 1 1664 1665
1632 1 1665 1666
1633 1 1666 1667
1634 1 1667 1668
1635 1 1668 1669
1636 1 1669 1670
1637 1 1670 1671
1638 1 1671 1672
1639 1 1672 1673
1640 1 1673 1674
1641 1 1674 1675
1642 1 1675 1676
1643 1 1676 1677
1644 1 1677 1678
1645 1 1678 1679
1646 1 1679 1680
1647 1 1680 1681
1648 1 1681 1682
1649 1 1682 1683
1650 1 1683 1684
1651 1 1684 1685
1652 1 1685 1686
1653 1 1686 1687
1654 1 1687 1688
1655 1 1688 1689
1656 1 1689 1690
1657 1 1690 1691
1658 1 1691 1692
1659 1 1692 1693
1660 1 1693 1694
1661 1 1694 1695
1662 1 1695 1696
1663 1 1696 1697
1664 1 1697 1698
1665 1 1698 1699
1666 1 1699 1700
1667 1 1701 1702
1668 1 1702 1703
1669 1 1703 1704
1670 1 1704 1705
1671 1 1705 1706
1672 1 1706 1707
1673 1 1707 1708
1674 1 1708 1709
1675 1 1709 1710
1676 1 1710 1711
1677 1 1711 1712
1678 1 1712 1713
1679 1 1713 1714
1680 1 1714 1715
1681 1 1715 1716
1682 1 1716 1717
1683 1 1717 1718
1684 1 1718 1719
1685 1 1719 1720
1686 1 1720 1721
1687 1 1721 1722
1688 1 1722 1723
1689 1 1723 1724
1690 1 1724 1725
1691 1 1725 1726
1692 1 1726 1727
1693 1 1727 1728
1694 1 1728 1729
1695 1 1729 1730
1696 1 1730 1731
1697 1 1731 1732
1698 1 1732 1733
1699 1 1733 1734
1700 1 1734 1735
1701 1 1735 1736
1702 1 1736 1737
1703 1 1737 1738
1704 1 1738 1739
1705 1 1739 1740
1706 1 1740 1741
1707 1 1741 1742
1708 1 1742 1743
1709 1 1743 1744
1710 1 1744 1745
1711 1 1745 1746
1712 1 1746 1747
1713 1 1747 1748
1714 1 1748 1749
1715 1 1749 1750
1716 1 1751 1752
1717 1 1752 1753
1718 1 1753 1754
1719 1 1754 1755
1720 1 1755 1756
1721 1 1756 1757
1722 1 1757 1758
1723 1 1758 1759
1724 1 1759 1760
1725 1 1760 1761
1726 1 1761 1762
1727 1 1762 1763
1728 1 1763 1764
1729 1 1764 1765
1730 1 1765 1766
1731 1 1766 1767
1732 1 1767 1768
1733 1 1768 1769
1734 1 1769 1770
1735 1 1770 1771
1736 1 1771 1772
1737 1 1772 1773
1738 1 1773 1774
1739 1 1774 1775
1740 1 1775 1776
1741 1 1776 1777
1742 1 1777 1778
1743 1 1778 1779
1744 1 1779 1780
1745 1 1780 1781
1746 1 1781 1782
1747 1 1782 1783
1748 1 1783 1784
1749 1 1784 1785
1750 1 1785 1786
1751 1 1786 1787
1752 1 1787 1788
1753 1 1788 1789
1754 1 1789 1790
1755 1 1790 1791
1756 1 1791 1792
1757 1 1792 1793
1758 1 1793 1794
1759 1 1794 1795
1760 1 1795 1796
1761 1 1796 1797
1762 1 1797 1798
1763 1 1798 1799
1764 1 1799 1800
1765 1 1801 1802
1766 1 1802 1803
1767 1 1803 1804
1768 1 1804 1805
1769 1 1805 1806
1770 1 1806 1807
1771 1 1807 1808
1772 1 1808 1809
1773 1 1809 1810
1774 1 1810 1811
1775 1 1811 1812
1776 1 1812 1813
1777 1 1813 1814
1778 1 1814 1815
1779 1 1815 1816
1780 1 1816 1817
1781 1 1817 1818
1782 1 1818 1819
1783 1 1819 1820
1784 1 1820 1821
1785 1 1821 1822
1786 1 1822 1823
1787 1 1823 1824
1788 1 1824 1825
1789 1 1825 1826
1790 1 1826 1827
1791 1 1827 1828
1792 1 1828 1829
1793 1 1829 1830
1794 1 1830 1831
1795 1 1831 1832
1796 1 1832 1833
1797 1 1833 1834
1798 1 1834 1835
1799 1 1835 1836
1800 1 1836 1837
1801 1 1837 1838
1802 1 1838 1839
1803 1 1839 1840
1804 1 1840 1841
1805 1 1841 1842
1806 1 1842 1843
1807 1 1843 1844
1808 1 1844 1845
1809 1 1845 1846
1810 1 1846 1847
1811 1 1847 1848
1812 1 1848 1849
1813 1 1849 1850
1814 1 1851 1852
1815 1 1852 1853
1816 1 1853 1854
1817 1 1854 1855
1818 1 1855 1856
1819 1 1856 1857
1820 1 1857 1858
1821 1 1858 1859
1822 1 1859 1860
1823 1 1860 1861
1824 1 1861 1862
1825 1 1862 1863
1826 1 1863 1864
1827 1 1864 1865
1828 1 1865 1866
1829 1 1866 1867
1830 1 1867 1868
1831 1 1868 1869
1832 1 1869 1870
1833 1 1870 1871
1834 1 1871 1872
1835 1 1872 1873
1836 1 1873 1874
1837 1 1874 1875
1838 1 1875 1876
1839 1 1876 1877
1840 1 1877 1878
1841 1 1878 1879
1842 1 1879 1880
1843 1 1880 1881
1844 1 1881 1882
1845 1 1882 1883
1846 1 1883 1884
1847 1 1884 1885
1848 1 1885 1886
1849 1 1886 1887
1850 1 1887 1888
1851 1 1888 1889
1852 1 1889 1890
1853 1 1890 1891
1854 1 1891 1892
1855 1 1892 1893
1856 1 1893 1894
1857 1 1894 1895
1858 1 1895 1896
1859 1 1896 1897
1860 1 1897 1898
1861 1 1898 1899
1862 1 1899 1900
1863 1 1901 1902
1864 1 1902 1903
1865 1 1903 1904
1866 1 1904 1905
1867 1 1905 1906
1868 1 1906 1907
1869 1 1907 1908
1870 1 1908 1909
1871 1 1909 1910
1872 1 1910 1911
1873 1 1911 1912
1874 1 1912 1913
1875 1 1913 1914
1876 1 1914 1915
1877 1 1915 1916
1878 1 1916 1917
1879 1 1917 1918
1880 1 1918 1919
1881 1 1919 1920
1882 1 1920 1921
1883 1 1921 1922
1884 1 1922 1923
1885 1 1923 1924
1886 1 1924 1925
1887 1 1925 1926
1888 1 1926 1927
1889 1 1927 1928
1890 1 1928 1929
1891 1 1929 1930
1892 1 1930 1931
1893 1 1931 1932
1894 1 1932 1933
1895 1 1933 1934
1896 1 1934 1935
1897 1 1935 1936
1898 1 1936 1937
1899 1 1937 1938
1900 1 1938 1939
1901 1 1939 1940
1902 1 1940 1941
1903 1 1941 1942
1904 1 1942 1943
1905 1 1943 1944
1906 1 1944 1945
1907 1 1945 1946
1908 1 1946 1947
1909 1 1947 1948
1910 1 1948 1949
1911 1 1949 1950
1912 1 1951 1952
1913 1 1952 1953
1914 1 1953 1954
1915 1 1954 1955
1916 1 1955 1956
1917 1 1956 1957
1918 1 1957 1958
1919 1 1958 1959
1920 1 1959 1960
1921 1 1960 1961
1922 1 1961 1962
1923 1 1962 1963
1924 1 1963 1964
1925 1 1964 1965
1926 1 1965 1966
1927 1 1966 1967
1928 1 1967 1968
1929 1 1968 1969
1930 1 1969 1970
1931 1 1970 1971
1932 1 1971 1972
1933 1 1972 1973
1934 1 1973 1974
1935 1 1974 1975
1936 1 1975 1976
1937 1 1976 1977
1938 1 1977 1978
1939 1 1978 1979
1940 1 1979 1980
1941 1 1980 1981
1942 1 1981 1982
1943 1 1982 1983
1944 1 1983 1984
1945 1 1984 1985
1946 1 1985 1986
1947 1 1986 1987
1948 1 1987 1988
1949 1 1988 1989
1950 1 1989 1990
1951 1 1990 1991
1952 1 1991 1992
1953 1 1992 1993
1954 1 1993 1994
1955 1 1994 1995
1956 1 1995 1996
1957 1 1996 1997
1958 1 1997 1998
1959 1 1998 1999
1960 1 1999 2000
1961 1 2001 2002
1962 1 2002 2003
1963 1 2003 2004
1964 1 2004 2005
1965 1 2005 2006
1966 1 2006 2007
1967 1 2007 2008
1968 1 2008 2009
1969 1 2009 2010
1970 1 2010 2011
1971 1 2011 2012
1972 1 2012 2013
1973 1 2013 2014
1974 1 2014 2015
1975 1 2015 2016
1976 1 2016 2017
1977 1 2017 2018
1978 1 2018 2019
1979 1 2019 2020
1980 1 2020 2021
1981 1 2021 2022
1982 1 2022 2023
1983 1 2023 2024
1984 1 2024 2025
1985 1 2025 2026
1986 1 2026 2027
1987 1 2027 2028
1988 1 2028 2029
1989 1 2029 2030
1990 1 2030 2031
1991 1 2031 2032
1992 1 2032 2033
1993 1 2033 2034
1994 1 2034 2035
1995 1 2035 2036
1996 1 2036 2037
1997 1 2037 2038
1998 1 2038 2039
1999 1 2039 2040
2000 1 2040 2041
2001 1 2041 2042
2002 1 2042 2043
2003 1 2043 2044
2004 1 2044 2045
2005 1 2045 2046
2006 1 2046 2047
2007 1 2047 2048
2008 1 2048 2049
2009 1 2049 2050
2010 1 2051 2052
2011 1 2052 2053
2012 1 2053 2054
2013 1 2054 2055
2014 1 2055 2056
2015 1 2056 2057
2016 1 2057 2058
2017 1 2058 2059
2018 1 2059 2060
2019 1 2060 2061
2020 1 2061 2062
2021 1 2062 2063
2022 1 2063 2064
2023 1 2064 2065
2024 1 2065 2066
2025 1 2066 2067
2026 1 2067 2068
2027 1 2068 2069
2028 1 2069 2070
2029 1 2070 2071
2030 1 2071 2072
2031 1 2072 2073
2032 1 2073 2074
2033 1 2074 2075
2034 1 2075 2076
2035 1 2076 2077
2036 1 2077 2078
2037 1 2078 2079
2038 1 2079 2080
2039 1 2080 2081
2040 1 2081 2082
2041 1 2082 2083
2042 1 2083 2084
2043 1 2084 2085
2044 1 2085 2086
2045 1 2086 2087
2046 1 2087 2088
2047 1 2088 2089
2048 1 2089 2090
2049 1 2090 2091
2050 1 2091 2092
2051 1 2092 2093
2052 1 2093 2094
2053 1 2094 2095
2054 1 2095 2096
2055 1 2096 2097
2056 1 2097 2098
2057 1 2098 2099
2058 1 2099 2100
2059 1 2101 2102
2060 1 2102 2103
2061 1 2103 2104
2062 1 2104 2105
2063 1 2105 2106
2064 1 2106 2107
2065 1 2107 2108
2066 1 2108 2109
2067 1 2109 2110
2068 1 2110 2111
2069 1 2111 2112
2070 1 2112 2113
2071 1 2113 2114
2072 1 2114 2115
2073 1 2115 2116
2074 1 2116 2117
2075 1 2117 2118
2076 1 2118 2119
2077 1 2119 2120
2078 1 2120 2121
2079 1 2121 2122
2080 1 2122 2123
2081 1 2123 2124
2082 1 2124 2125
2083 1 2125 2126
2084 1 2126 2127
2085 1 2127 2128
2086 1 2128 2129
2087 1 2129 2130
2088 1 2130 2131
2089 1 2131 2132
2090 1 2132 2133
2091 1 2133 2134
2092 1 2134 2135
2093 1 2135 2136
2094 1 2136 2137
2095 1 2137 2138
2096 1 2138 2139
2097 1 2139 2140
2098 1 2140 2141
2099 1 2141 2142
2100 1 2142 2143
2101 1 2143 2144
2102 1 2144 2145
2103 1 2145 2146
2104 1 2146 2147
2105 1 2147 2148
2106 1 2148 2149
2107 1 2149 2150
2108 1 2151 2152
2109 1 2152 2153
2110 1 2153 2154
2111 1 2154 2155
2112 1 2155 2156
2113 1 2156 2157
2114 1 2157 2158
2115 1 2158 2159
2116 1 2159 2160
2117 1 2160 2161
2118 1 2161 2162
2119 1 2162 2163
2120 1 2163 2164
2121 1 2164 2165
2122 1 2165 2166
2123 1 2166 2167
2124 1 2167 2168
2125 1 2168 2169
2126 1 2169 2170
2127 1 2170 2171
2128 1 2171 2172
2129 1 2172 2173
2130 1 2173 2174
2131 1 2174 2175
2132 1 2175 2176
2133 1 2176 2177
2134 1 2177 2178
2135 1 2178 2179
2136 1 2179 2180
2137 1 2180 2181
2138 1 2181 2182
2139 1 2182 2183
2140 1 2183 2184
2141 1 2184 2185
2142 1 2185 2186
2143 1 2186 2187
2144 1 2187 2188
2145 1 2188 2189
2146 1 2189 2190
2147 1 2190 2191
2148 1 2191 2192
2149 1 2192 2193
2150 1 2193 2194
2151 1 2194 2195
2152 1 2195 2196
2153 1 2196 2197
2154 1 2197 2198
2155 1 2198 2199
2156 1 2199 2200
2157 1 2201 2202
2158 1 2202 2203
2159 1 2203 2204
2160 1 2204 2205
2161 1 2205 2206
2162 1 2206 2207
2163 1 2207 2208
2164 1 2208 2209
2165 1 2209 2210
2166 1 2210 2211
2167 1 2211 2212
2168 1 2212 2213
2169 1 2213 2214
2170 1 2214 2215
2171 1 2215 2216
2172 1 2216 2217
2173 1 2217 2218
2174 1 2218 2219
2175 1 2219 2220
2176 1 2220 2221
2177 1 2221 2222
2178 1 2222 2223
2179 1 2223 2224
2180 1 2224 2225
2181 1 2225 2226
2182 1 2226 2227
2183 1 2227 2228
2184 1 2228 2229
2185 1 2229 2230
2186 1 2230 2231
2187 1 2231 2232
2188 1 2232 2233
2189 1 2233 2234
2190 1 2234 2235
2191 1 2235 2236
2192 1 2236 2237
2193 1 2237 2238
2194 1 2238 2239
2195 1 2239 2240
2196 1 2240 2241
2197 1 2241 2242
2198 1 2242 2243
2199 1 2243 2244
2200 1 2244 2245
2201 1 2245 2246
2202 1 2246 2247
2203 1 2247 2248
2204 1 2248 2249
2205 1 2249 2250
2206 1 2251 2252
2207 1 2252 2253
2208 1 2253 2254
2209 1 2254 2255
2210 1 2255 2256
2211 1 2256 2257
2212 1 2257 2258
2213 1 2258 2259
2214 1 2259 2260
2215 1 2260 2261
2216 1 2261 2262
2217 1 2262 2263
2218 1 2263 2264
2219 1 2264 2265
2220 1 2265 2266
2221 1 2266 2267
2222 1 2267 2268
2223 1 2268 2269
2224 1 2269 2270
2225 1 2270 2271
2226 1 2271 2272
2227 1 2272 2273
2228 1 2273 2274
2229 1 2274 2275
2230 1 2275 2276
2231 1 2276 2277
2232 1 2277 2278
2233 1 2278 2279
2234 1 2279 2280
2235 1 2280 2281
2236 1 2281 2282
2237 1 2282 2283
2238 1 2283 2284
2239 1 2284 2285
2240 1 2285 2286
2241 1 2286 2287
2242 1 2287 2288
2243 1 2288 2289
2244 1 2289 2290
2245 1 2290 2291
2246 1 2291 2292
2247 1 2292 2293
2248 1 2293 2294
2249 1 2294 2295
2250 1 2295 2296
2251 1 2296 2297
2252 1 2297 2298
2253 1 2298 2299
2254 1 2299 2300
2255 1 2301 2302
2256 1 2302 2303
2257 1 2303 2304
2258 1 2304 2305
2259 1 2305 2306
2260 1 2306 2307
2261 1 2307 2308
2262 1 2308 2309
2263 1 2309 2310
2264 1 2310 2311
2265 1 2311 2312
2266 1 2312 2313
2267 1 2313 2314
2268 1 2314 2315
2269 1 2315 2316
2270 1 2316 2317
2271 1 2317 2318
2272 1 2318 2319
2273 1 2319 2320
2274 1 2320 2321
2275 1 2321 2322
2276 1 2322 2323
2277 1 2323 2324
2278 1 2324 2325
2279 1 2325 2326
2280 1 2326 2327
2281 1 2327 2328
2282 1 2328 2329
2283 1 2329 2330
2284 1 2330 2331
2285 1 2331 2332
2286 1 2332 2333
2287 1 2333 2334
2288 1 2334 2335
2289 1 2335 2336
2290 1 2336 2337
2291 1 2337 2338
2292 1 2338 2339
2293 1 2339 2340
2294 1 2340 2341
2295 1 2341 2342
2296 1 2342 2343
2297 1 2343 2344
2298 1 2344 2345
2299 1 2345 2346
2300 1 2346 2347
2301 1 2347 2348
2302 1 2348 2349
2303 1 2349 2350
2304 1 2351 2352
2305 1 2352 2353
2306 1 2353 2354
2307 1 2354 2355
2308 1 2355 2356
2309 1 2356 2357
2310 1 2357 2358
2311 1 2358 2359
2312 1 2359 2360
2313 1 2360 2361
2314 1 2361 2362
2315 1 2362 2363
2316 1 2363 2364
2317 1 2364 2365
2318 1 2365 2366
2319 1 2366 2367
2320 1 2367 2368
2321 1 2368 2369
2322 1 2369 2370
2323 1 2370 2371
2324 1 2371 2372
2325 1 2372 2373
2326 1 2373 2374
2327 1 2374 2375
2328 1 2375 2376
2329 1 2376 2377
2330 1 2377 2378
2331 1 2378 2379
2332 1 2379 2380
2333 1 2380 2381
2334 1 2381 2382
2335 1 2382 2383
2336 1 2383 2384
2337 1 2384 2385
2338 1 2385 2386
2339 1 2386 2387
2340 1 2387 2388
2341 1 2388 2389
2342 1 2389 2390
2343 1 2390 2391
2344 1 2391 2392
2345 1 2392 2393
2346 1 2393 2394
2347 1 2394 2395
2348 1 2395 2396
2349 1 2396 2397
2350 1 2397 2398
2351 1 2398 2399
2352 1 2399 2400
2353 1 2401 2402
2354 1 2402 2403
2355 1 2403 2404
2356 1 2404 2405
2357 1 2405 2406
2358 1 2406 2407
2359 1 2407 2408
2360 1 2408 2409
2361 1 2409 2410
2362 1 2410 2411
2363 1 2411 2412
2364 1 2412 2413
2365 1 2413 2414
2366 1 2414 2415
2367 1 2415 2416
2368 1 2416 2417
2369 1 2417 2418
2370 1 2418 2419
2371 1 2419 2420
2372 1 2420 2421
2373 1 2421 2422
2374 1 2422 2423
2375 1 2423 2424
2376 1 2424 2425
2377 1 2425 2426
2378 1 2426 2427
2379 1 2427 2428
2380 1 2428 2429
2381 1 2429 2430
2382 1 2430 2431
2383 1 2431 2432
2384 1 2432 2433
2385 1 2433 2434
2386 1 2434 2435
2387 1 2435 2436
2388 1 2436 2437
2389 1 2437 2438
2390 1 2438 2439
2391 1 2439 2440
2392 1 2440 2441
2393 1 2441 2442
2394 1 2442 2443
2395 1 2443 2444
2396 1 2444 2445
2397 1 2445 2446
2398 1 2446 2447
2399 1 2447 2448
2400 1 2448 2449
2401 1 2449 2450
2402 1 2451 2452
2403 1 2452 2453
2404 1 2453 2454
2405 1 2454 2455
2406 1 2455 2456
2407 1 2456 2457
2408 1 2457 2458
2409 1 2458 2459
2410 1 2459 2460
2411 1 2460 2461
2412 1 2461 2462
2413 1 2462 2463
2414 1 2463 2464
2415 1 2464 2465
2416 1 2465 2466
2417 1 2466 2467
2418 1 2467 2468
2419 1 2468 2469
2420 1 2469 2470
2421 1 2470 2471
2422 1 2471 2472
2423 1 2472 2473
2424 1 2473 2474
2425 1 2474 2475
2426 1 2475 2476
2427 1 2476 2477
2428 1 2477 2478
2429 1 2478 2479
2430 1 2479 2480
2431 1 2480 2481
2432 1 2481 2482
2433 1 2482 2483
2434 1 2483 2484
2435 1 2484 2485
2436 1 2485 2486
2437 1 2486 2487
2438 1 2487 2488
2439 1 2488 2489
2440 1 2489 2490
2441 1 2490 2491
2442 1 2491 2492
2443 1 2492 2493
2444 1 2493 2494
2445 1 2494 2495
2446 1 2495 2496
2447 1 2496 2497
2448 1 2497 2498
2449 1 2498 2499
2450 1 2499 2500
2451 1 2501 2502
2452 1 2502 2503
2453 1 2503 2504
2454 1 2504 2505
2455 1 2505 2506
2456 1 2506 2507
2457 1 2507 2508
2458 1 2508 2509
2459 1 2509 2510
2460 1 2510 2511
2461 1 2511 2512
2462 1 2512 2513
2463 1 2513 2514
2464 1 2514 2515
2465 1 2515 2516
2466 1 2516 2517
2467 1 2517 2518
2468 1 2518 2519
2469 1 2519 2520
2470 1 2520 2521
2471 1 2521 2522
2472 1 2522 2523
2473 1 2523 2524
2474 1 2524 2525
2475 1 2525 2526
2476 1 2526 2527
2477 1 2527 2528
2478 1 2528 2529
2479 1 2529 2530
2480 1 2530 2531
2481 1 2531 2532
2482 1 2532 2533
2483 1 2533 2534
2484 1 2534 2535
2485 1 2535 2536
2486 1 2536 2537
2487 1 2537 2538
2488 1 2538 2539
2489 1 2539 2540
2490 1 2540 2541
2491 1 2541 2542
2492 1 2542 2543
2493 1 2543 2544
2494 1 2544 2545
2495 1 2545 2546
2496 1 2546 2547
2497 1 2547 2548
2498 1 2548 2549
2499 1 2549 2550
2500 1 2551 2552
2501 1 2552 2553
2502 1 2553 2554
2503 1 2554 2555
2504 1 2555 2556
2505 1 2556 2557
2506 1 2557 2558
2507 1 2558 2559
2508 1 2559 2560
2509 1 2560 2561
2510 1 2561 2562
2511 1 2562 2563
2512 1 2563 2564
2513 1 2564 2565
2514 1 2565 2566
2515 1 2566 2567
2516 1 2567 2568
2517 1 2568 2569
2518 1 2569 2570
2519 1 2570 2571
2520 1 2571 2572
2521 1 2572 2573
2522 1 2573 2574
2523 1 2574 2575
2524 1 2575 2576
2525 1 2576 2577
2526 1 2577 2578
2527 1 2578 2579
2528 1 2579 2580
2529 1 2580 2581
2530 1 2581 2582
2531 1 2582 2583
2532 1 2583 2584
2533 1 2584 2585
2534 1 2585 2586
2535 1 2586 2587
2536 1 2587 2588
2537 1 2588 2589
2538 1 2589 2590
2539 1 2590 2591
2540 1 2591 2592
2541 1 2592 2593
2542 1 2593 2594
2543 1 2594 2595
2544 1 2595 2596
2545 1 2596 2597
2546 1 2597 2598
2547 1 2598 2599
2548 1 2599 2600
2549 1 2601 2602
2550 1 2602 2603
2551 1 2603 2604
2552 1 2604 2605
2553 1 2605 2606
2554 1 2606 2607
2555 1 2607 2608
2556 1 2608 2609
2557 1 2609 2610
2558 1 2610 2611
2559 1 2611 2612
2560 1 2612 2613
2561 1 2613 2614
2562 1 2614 2615
2563 1 2615 2616
2564 1 2616 2617
2565 1 2617 2618
2566 1 2618 2619
2567 1 2619 2620
2568 1 2620 2621
2569 1 2621 2622
2570 1 2622 2623
2571 1 2623 2624
2572 1 2624 2625
2573 1 2625 2626
2574 1 2626 2627
2575 1 2627 2628
2576 1 2628 2629
2577 1 2629 2630
2578 1 2630 2631
2579 1 2631 2632
2580 1 2632 2633
2581 1 2633 2634
2582 1 2634 2635
2583 1 2635 2636
2584 1 2636 2637
2585 1 2637 2638
2586 1 2638 2639
2587 1 2639 2640
2588 1 2640 2641
2589 1 2641 2642
2590 1 2642 2643
2591 1 2643 2644
2592 1 2644 2645
2593 1 2645 2646
2594 1 2646 2647
2595 1 2647 2648
2596 1 2648 2649
2597 1 2649 2650
2598 1 2651 2652
2599 1 2652 2653
2600 1 2653 2654
2601 1 2654 2655
2602 1 2655 2656
2603 1 2656 2657
2604 1 2657 2658
2605 1 2658 2659
2606 1 2659 2660
2607 1 2660 2661
2608 1 2661 2662
2609 1 2662 2663
2610 1 2663 2664
2611 1 2664 2665
2612 1 2665 2666
2613 1 2666 2667
2614 1 2667 2668
2615 1 2668 2669
2616 1 2669 2670
2617 1 2670 2671
2618 1 2671 2672
2619 1 2672 2673
2620 1 2673 2674
2621 1 2674 2675
2622 1 2675 2676
2623 1 2676 2677
2624 1 2677 2678
2625 1 2678 2679
2626 1 2679 2680
2627 1 2680 2681
2628 1 2681 2682
2629 1 2682 2683
2630 1 2683 2684
2631 1 2684 2685
2632 1 2685 2686
2633 1 2686 2687
2634 1 2687 2688
2635 1 2688 2689
2636 1 2689 2690
2637 1 2690 2691
2638 1 2691 2692
2639 1 2692 2693
2640 1 2693 2694
2641 1 2694 2695
2642 1 2695 2696
2643 1 2696 2697
2644 1 2697 2698
2645 1 2698 2699
2646 1 2699 2700
2647 1 2701 2702
2648 1 2702 2703
2649 1 2703 2704
2650 1 2704 2705
2651 1 2705 2706
2652 1 2706 2707
2653 1 2707 2708
2654 1 2708 2709
2655 1 2709 2710
2656 1 2710 2711
2657 1 2711 2712
2658 1 2712 2713
2659 1 2713 2714
2660 1 2714 2715
2661 1 2715 2716
2662 1 2716 2717
2663 1 2717 2718
2664 1 2718 2719
2665 1 2719 2720
2666 1 2720 2721
2667 1 2721 2722
2668 1 2722 2723
2669 1 2723 2724
2670 1 2724 2725
2671 1 2725 2726
2672 1 2726 2727
2673 1 2727 2728
2674 1 2728 2729
2675 1 2729 2730
2676 1 2730 2731
2677 1 2731 2732
2678 1 2732 2733
2679 1 2733 2734
2680 1 2734 2735
2681 1 2735 2736
2682 1 2736 2737
2683 1 2737 2738
2684 1 2738 2739
2685 1 2739 2740
2686 1 2740 2741
2687 1 2741 2742
2688 1 2742 2743
2689 1 2743 2744
2690 1 2744 2745
2691 1 2745 2746
2692 1 2746 2747
2693 1 2747 2748
2694 1 2748 2749
2695 1 2749 2750
2696 1 2751 2752
2697 1 2752 2753
2698 1 2753 2754
2699 1 2754 2755
2700 1 2755 2756
2701 1 2756 2757
2702 1 2757 2758
2703 1 2758 2759
2704 1 2759 2760
2705 1 2760 2761
2706 1 2761 2762
2707 1 2762 2763
2708 1 2763 2764
2709 1 2764 2765
2710 1 2765 2766
2711 1 2766 2767
2712 1 2767 2768
2713 1 2768 2769
2714 1 2769 2770
2715 1 2770 2771
2716 1 2771 2772
2717 1 2772 2773
2718 1 2773 2774
2719 1 2774 2775
2720 1 2775 2776
2721 1 2776 2777
2722 1 2777 2778
2723 1 2778 2779
2724 1 2779 2780
2725 1 2780 2781
2726 1 2781 2782
2727 1 2782 2783
2728 1 2783 2784
2729 1 2784 2785
2730 1 2785 2786
2731 1 2786 2787
2732 1 2787 2788
2733 1 2788 2789
2734 1 2789 2790
2735 1 2790 2791
2736 1 2791 2792
2737 1 2792 2793
2738 1 2793 2794
2739 1 2794 2795
2740 1 2795 2796
2741 1 2796 2797
2742 1 2797 2798
2743 1 2798 2799
2744 1 2799 2800
2745 1 2801 2802
2746 1 2802 2803
2747 1 2803 2804
2748 1 2804 2805
2749 1 2805 2806
2750 1 2806 2807
2751 1 2807 2808
2752 1 2808 2809
2753 1 2809 2810
2754 1 2810 2811
2755 1 2811 2812
2756 1 2812 2813
2757 1 2813 2814
2758 1 2814 2815
2759 1 2815 2816
2760 1 2816 2817
2761 1 2817 2818
2762 1 2818 2819
2763 1 2819 2820
2764 1 2820 2821
2765 1 2821 2822
2766 1 2822 2823
2767 1 2823 2824
2768 1 2824 2825
2769 1 2825 2826
2770 1 2826 2827
2771 1 2827 2828
2772 1 2828 2829
2773 1 2829 2830
2774 1 2830 2831
2775 1 2831 2832
2776 1 2832 2833
2777 1 2833 2834
2778 1 2834 2835
2779 1 2835 2836
2780 1 2836 2837
2781 1 2837 2838
2782 1 2838 2839
2783 1 2839 2840
2784 1 2840 2841
2785 1 2841 2842
2786 1 2842 2843
2787 1 2843 2844
2788 1 2844 2845
2789 1 2845 2846
2790 1 2846 2847
2791 1 2847 2848
2792 1 2848 2849
2793 1 2849 2850
2794 1 2851 2852
2795 1 2852 2853
2796 1 2853 2854
2797 1 2854 2855
2798 1 2855 2856
2799 1 2856 2857
2800 1 2857 2858
2801 1 2858 2859
2802 1 2859 2860
2803 1 2860 2861
2804 1 2861 2862
2805 1 2862 2863
2806 1 2863 2864
2807 1 2864 2865
2808 1 2865 2866
2809 1 2866 2867
2810 1 2867 2868
2811 1 2868 2869
2812 1 2869 2870
2813 1 2870 2871
2814 1 2871 2872
2815 1 2872 2873
2816 1 2873 2874
2817 1 2874 2875
2818 1 2875 2876
2819 1 2876 2877
2820 1 2877 2878
2821 1 2878 2879
2822 1 2879 2880
2823 1 2880 2881
2824 1 2881 2882
2825 1 2882 2883
2826 1 2883 2884
2827 1 2884 2885
2828 1 2885 2886
2829 1 2886 2887
2830 1 2887 2888
2831 1 2888 2889
2832 1 2889 2890
2833 1 2890 2891
2834 1 2891 2892
2835 1 2892 2893
2836 1 2893 2894
2837 1 2894 2895
2838 1 2895 2896
2839 1 2896 2897
2840 1 2897 2898
2841 1 2898 2899
2842 1 2899 2900
2843 1 2901 2902
2844 1 2902 2903
2845 1 2903 2904
2846 1 2904 2905
2847 1 2905 2906
2848 1 2906 2907
2849 1 2907 2908
2850 1 2908 2909
2851 1 2909 2910
2852 1 2910 2911
2853 1 2911 2912
2854 1 2912 2913
2855 1 2913 2914
2856 1 2914 2915
2857 1 2915 2916
2858 1 2916 2917
2859 1 2917 2918
2860 1 2918 2919
2861 1 2919 2920
2862 1 2920 2921
2863 1 2921 2922
2864 1 2922 2923
2865 1 2923 2924
2866 1 2924 2925
2867 1 2925 2926
2868 1 2926 2927
2869 1 2927 2928
2870 1 2928 2929
2871 1 2929 2930
2872 1 2930 2931
2873 1 2931 2932
2874 1 2932 2933
2875 1 2933 2934
2876 1 2934 2935
2877 1 2935 2936
2878 1 2936 2937
2879 1 2937 2938
2880 1 2938 2939
2881 1 2939 2940
2882 1 2940 2941
2883 1 2941 2942
2884 1 2942 2943
2885 1 2943 2944
2886 1 2944 2945
2887 1 2945 2946
2888 1 2946 2947
2889 1 2947 2948
2890 1 2948 2949
2891 1 2949 2950
2892 1 2951 2952
2893 1 2952 2953
2894 1 2953 2954
2895 1 2954 2955
2896 1 2955 2956
2897 1 2956 2957
2898 1 2957 2958
2899 1 2958 2959
2900 1 2959 2960
2901 1 2960 2961
2902 1 2961 2962
2903 1 2962 2963
2904 1 2963 2964
2905 1 2964 2965
2906 1 2965 2966
2907 1 2966 2967
2908 1 2967 2968
2909 1 2968 2969
2910 1 2969 2970
2911 1 2970 2971
2912 1 2971 2972
2913 1 2972 2973
2914 1 2973 2974
2915 1 2974 2975
2916 1 2975 2976
2917 1 2976 2977
2918 1 2977 2978
2919 1 2978 2979
2920 1 2979 2980
2921 1 2980 2981
2922 1 2981 2982
2923 1 2982 2983
2924 1 2983 2984
2925 1 2984 2985
2926 1 2985 2986
2927 1 2986 2987
2928 1 2987 2988
2929 1 2988 2989
2930 1 2989 2990
2931 1 2990 2991
2932 1 2991 2992
2933 1 2992 2993
2934 1 2993 2994
2935 1 2994 2995
2936 1 2995 2996
2937 1 2996 2997
2938 1 2997 2998
2939 1 2998 2999
2940 1 2999 3000
2941 1 3001 3002
2942 1 3002 3003
2943 1 3003 3004
2944 1 3004 3005
2945 1 3005 3006
2946 1 3006 3007
2947 1 3007 3008
2948 1 3008 3009
2949 1 3009 3010
2950 1 3010 3011
2951 1 3011 3012
2952 1 3012 3013
2953 1 3013 3014
2954 1 3014 3015
2955 1 3015 3016
2956 1 3016 3017
2957 1 3017 3018
2958 1 3018 3019
2959 1 3019 3020
2960 1 3020 3021
2961 1 3021 3022
2962 1 3022 3023
2963 1 3023 3024
2964 1 3024 3025
2965 1 3025 3026
2966 1 3026 3027
2967 1 3027 3028
2968 1 3028 3029
2969 1 3029 3030
2970 1 3030 3031
2971 1 3031 3032
2972 1 3032 3033
2973 1 3033 3034
2974 1 3034 3035
2975 1 3035 3036
2976 1 3036 3037
2977 1 3037 3038
2978 1 3038 3039
2979 1 3039 3040
2980 1 3040 3041
2981 1 3041 3042
2982 1 3042 3043
2983 1 3043 3044
2984 1 3044 3045
2985 1 3045 3046
2986 1 3046 3047
2987 1 3047 3048
2988 1 3048 3049
2989 1 3049 3050
2990 1 3051 3052
2991 1 3052 3053
2992 1 3053 3054
2993 1 3054 3055
2994 1 3055 3056
2995 1 3056 3057
2996 1 3057 3058
2997 1 3058 3059
2998 1 3059 3060
2999 1 3060 3061
3000 1 3061 3062
3001 1 3062 3063
3002 1 3063 3064
3003 1 3064 3065
3004 1 3065 3066
3005 1 3066 3067
3006 1 3067 3068
3007 1 3068 3069
3008 1 3069 3070
3009 1 3070 3071
3010 1 3071 3072
3011 1 3072 3073
3012 1 3073 3074
3013 1 3074 3075
3014 1 3075 3076
3015 1 3076 3077
3016 1 3077 3078
3017 1 3078 3079
3018 1 3079 3080
3019 1 3080 3081
3020 1 3081 3082
3021 1 3082 3083
3022 1 3083 3084
3023 1 3084 3085
3024 1 3085 3086
3025 1 3086 3087
3026 1 3087 3088
3027 1 3088 3089
3028 1 3089 3090
3029 1 3090 3091
3030 1 3091 3092
3031 1 3092 3093
3032 1 3093 3094
3033 1 3094 3095
3034 1 3095 3096
3035 1 3096 3097
3036 1 3097 3098
3037 1 3098 3099
3038 1 3099 3100
3039 1 3101 3102
3040 1 3102 3103
3041 1 3103 3104
3042 1 3104 3105
3043 1 3105 3106
3044 1 3106 3107
3045 1 3107 3108
3046 1 3108 3109
3047 1 3109 3110
3048 1 3110 3111
3049 1 3111 3112
3050 1 3112 3113
3051 1 3113 3114
3052 1 3114 3115
3053 1 3115 3116
3054 1 3116 3117
3055 1 3117 3118
3056 1 3118 3119
3057 1 3119 3120
3058 1 3120 3121
3059 1 3121 3122
3060 1 3122 3123
3061 1 3123 3124
3062 1 3124 3125
3063 1 3125 3126
3064 1 3126 3127
3065 1 3127 3128
3066 1 3128 3129
3067 1 3129 3130
3068 1 3130 3131
3069 1 3131 3132
3070 1 3132 3133
3071 1 3133 3134
3072 1 3134 3135
3073 1 3135 3136
3074 1 3136 3137
3075 1 3137 3138
3076 1 3138 3139
3077 1 3139 3140
3078 1 3140 3141
3079 1 3141 3142
3080 1 3142 3143
3081 1 3143 3144
3082 1 3144 3145
3083 1 3145 3146
3084 1 3146 3147
3085 1 3147 3148
3086 1 3148 3149
3087 1 3149 3150
3088 1 3151 3152
3089 1 3152 3153
3090 1 3153 3154
3091 1 3154 3155
3092 1 3155 3156
3093 1 3156 3157
3094 1 3157 3158
3095 1 3158 3159
3096 1 3159 3160
3097 1 3160 3161
3098 1 3161 3162
3099 1 3162 3163
3100 1 3163 3164
3101 1 3164 3165
3102 1 3165 3166
3103 1 3166 3167
3104 1 3167 3168
3105 1 3168 3169
3106 1 3169 3170
3107 1 3170 3171
3108 1 3171 3172
3109 1 3172 3173
3110 1 3173 3174
3111 1 3174 3175
3112 1 3175 3176
3113 1 3176 3177
3114 1 3177 3178
3115 1 3178 3179
3116 1 3179 3180
3117 1 3180 3181
3118 1 3181 3182
3119 1 3182 3183
3120 1 3183 3184
3121 1 3184 3185
3122 1 3185 3186
3123 1 3186 3187
3124 1 3187 3188
3125 1 3188 3189
3126 1 3189 3190
3127 1 3190 3191
3128 1 3191 3192
3129 1 3192 3193
3130 1 3193 3194
3131 1 3194 3195
3132 1 3195 3196
3133 1 3196 3197
3134 1 3197 3198
3135 1 3198 3199
3136 1 3199 3200
3137 1 3201 3202
3138 1 3202 3203
3139 1 3203 3204
3140 1 3204 3205
3141 1 3205 3206
3142 1 3206 3207
3143 1 3207 3208
3144 1 3208 3209
3145 1 3209 3210
3146 1 3210 3211
3147 1 3211 3212
3148 1 3212 3213
3149 1 3213 3214
3150 1 3214 3215
3151 1 3215 3216
3152 1 3216 3217
3153 1 3217 3218
3154 1 3218 3219
3155 1 3219 3220
3156 1 3220 3221
3157 1 3221 3222
3158 1 3222 3223
3159 1 3223 3224
3160 1 3224 3225
3161 1 3225 3226
3162 1 3226 3227
3163 1 3227 3228
3164 1 3228 3229
3165 1 3229 3230
3166 1 3230 3231
3167 1 3231 3232
3168 1 3232 3233
3169 1 3233 3234
3170 1 3234 3235
3171 1 3235 3236
3172 1 3236 3237
3173 1 3237 3238
3174 1 3238 3239
3175 1 3239 3240
3176 1 3240 3241
3177 1 3241 3242
3178 1 3242 3243
3179 1 3243 3244
3180 1 3244 3245
3181 1 3245 3246
3182 1 3246 3247
3183 1 3247 3248
3184 1 3248 3249
3185 1 3249 3250
3186 1 3251 3252
3187 1 3252 3253
3188 1 3253 3254
3189 1 3254 3255
3190 1 3255 3256
3191 1 3256 3257
3192 1 3257 3258
3193 1 3258 3259
3194 1 3259 3260
3195 1 3260 3261
3196 1 3261 3262
3197 1 3262 3263
3198 1 3263 3264
3199 1 3264 3265
3200 1 3265 3266
3201 1 3266 3267
3202 1 3267 3268
3203 1 3268 3269
3204 1 3269 3270
3205 1 3270 3271
3206 1 3271 3272
3207 1 3272 3273
3208 1 3273 3274
3209 1 3274 3275
3210 1 3275 3276
3211 1 3276 3277
3212 1 3277 3278
3213 1 3278 3279
3214 1 3279 3280
3215 1 3280 3281
3216 1 3281 3282
3217 1 3282 3283
3218 1 3283 3284
3219 1 3284 3285
3220 1 3285 3286
3221 1 3286 3287
3222 1 3287 3288
3223 1 3288 3289
3224 1 3289 3290
3225 1 3290 3291
3226 1 3291 3292
3227 1 3292 3293
3228 1 3293 3294
3229 1 3294 3295
3230 1 3295 3296
3231 1 3296 3297
3232 1 3297 3298
3233 1 3298 3299
3234 1 3299 3300
3235 1 3301 3302
3236 1 3302 3303
3237 1 3303 3304
3238 1 3304 3305
3239 1 3305 3306
3240 1 3306 3307
3241 1 3307 3308
3242 1 3308 3309
3243 1 3309 3310
3244 1 3310 3311
3245 1 3311 3312
3246 1 3312 3313
3247 1 3313 3314
3248 1 3314 3315
3249 1 3315 3316
3250 1 3316 3317
3251 1 3317 3318
3252 1 3318 3319
3253 1 3319 3320
3254 1 3320 3321
3255 1 3321 3322
3256 1 3322 3323
3257 1 3323 3324
3258 1 3324 3325
3259 1 3325 3326
3260 1 3326 3327
3261 1 3327 3328
3262 1 3328 3329
3263 1 3329 3330
3264 1 3330 3331
3265 1 3331 3332
3266 1 3332 3333
3267 1 3333 3334
3268 1 3334 3335
3269 1 3335 3336
3270 1 3336 3337
3271 1 3337 3338
3272 1 3338 3339
3273 1 3339 3340
3274 1 3340 3341
3275 1 3341 3342
3276 1 3342 3343
3277 1 3343 3344
3278 1 3344 3345
3279 1 3345 3346
3280 1 3346 3347
3281 1 3347 3348
3282 1 3348 3349
3283 1 3349 3350
3284 1 3351 3352
3285 1 3352 3353
3286 1 3353 3354
3287 1 3354 3355
3288 1 3355 3356
3289 1 3356 3357
3290 1 3357 3358
3291 1 3358 3359
3292 1 3359 3360
3293 1 3360 3361
3294 1 3361 3362
3295 1 3362 3363
3296 1 3363 3364
3297 1 3364 3365
3298 1 3365 3366
3299 1 3366 3367
3300 1 3367 3368
3301 1 3368 3369
3302 1 3369 3370
3303 1 3370 3371
3304 1 3371 3372
3305 1 3372 3373
3306 1 3373 3374
3307 1 3374 3375
3308 1 3375 3376
3309 1 3376 3377
3310 1 3377 3378
3311 1 3378 3379
3312 1 3379 3380
3313 1 3380 3381
3314 1 3381 3382
3315 1 3382 3383
3316 1 3383 3384
3317 1 3384 3385
3318 1 3385 3386
3319 1 3386 3387
3320 1 3387 3388
3321 1 3388 3389
3322 1 3389 3390
3323 1 3390 3391
3324 1 3391 3392
3325 1 3392 3393
3326 1 3393 3394
3327 1 3394 3395
3328 1 3395 3396
3329 1 3396 3397
3330 1 3397 3398
3331 1 3398 3399
3332 1 3399 3400
3333 1 3401 3402
3334 1 3402 3403
3335 1 3403 3404
3336 1 3404 3405
3337 1 3405 3406
3338 1 3406 3407
3339 1 3407 3408
3340 1 3408 3409
3341 1 3409 3410
3342 1 3410 3411
3343 1 3411 3412
3344 1 3412 3413
3345 1 3413 3414
3346 1 3414 3415
3347 1 3415 3416
3348 1 3416 3417
3349 1 3417 3418
3350 1 3418 3419
3351 1 3419 3420
3352 1 3420 3421
3353 1 3421 3422
3354 1 3422 3423
3355 1 3423 3424
3356 1 3424 3425
3357 1 3425 3426
3358 1 3426 3427
3359 1 3427 3428
3360 1 3428 3429
3361 1 3429 3430
3362 1 3430 3431
3363 1 3431 3432
3364 1 3432 3433
3365 1 3433 3434
3366 1 3434 3435
3367 1 3435 3436
3368 1 3436 3437
3369 1 3437 3438
3370 1 3438 3439
3371 1 3439 3440
3372 1 3440 3441
3373 1 3441 3442
3374 1 3442 3443
3375 1 3443 3444
3376 1 3444 3445
3377 1 3445 3446
3378 1 3446 3447
3379 1 3447 3448
3380 1 3448 3449
3381 1 3449 3450
3382 1 3451 3452
3383 1 3452 3453
3384 1 3453 3454
3385 1 3454 3455
3386 1 3455 3456
3387 1 3456 3457
3388 1 3457 3458
3389 1 3458 3459
3390 1 3459 3460
3391 1 3460 3461
3392 1 3461 3462
3393 1 3462 3463
3394 1 3463 3464
3395 1 3464 3465
3396 1 3465 3466
3397 1 3466 3467
3398 1 3467 3468
3399 1 3468 3469
3400 1 3469 3470
3401 1 3470 3471
3402 1 3471 3472
3403 1 3472 3473
3404 1 3473 3474
3405 1 3474 3475
3406 1 3475 3476
3407 1 3476 3477
3408 1 3477 3478
3409 1 3478 3479
3410 1 3479 3480
3411 1 3480 3481
3412 1 3481 3482
3413 1 3482 3483
3414 1 3483 3484
3415 1 3484 3485
3416 1 3485 3486
3417 1 3486 3487
3418 1 3487 3488
3419 1 3488 3489
3420 1 3489 3490
3421 1 3490 3491
3422 1 3491 3492
3423 1 3492 3493
3424 1 3493 3494
3425 1 3494 3495
3426 1 3495 3496
3427 1 3496 3497
3428 1 3497 3498
3429 1 3498 3499
3430 1 3499 3500
3431 1 3501 3502
3432 1 3502 3503
3433 1 3503 3504
3434 1 3504 3505
3435 1 3505 3506
3436 1 3506 3507
3437 1 3507 3508
3438 1 3508 3509
3439 1 3509 3510
3440 1 3510 3511
3441 1 3511 3512
3442 1 3512 3513
3443 1 3513 3514
3444 1 3514 3515
3445 1 3515 3516
3446 1 3516 3517
3447 1 3517 3518
3448 1 3518 3519
3449 1 3519 3520
3450 1 3520 3521
3451 1 3521 3522
3452 1 3522 3523
3453 1 3523 3524
3454 1 3524 3525
3455 1 3525 3526
3456 1 3526 3527
3457 1 3527 3528
3458 1 3528 3529
3459 1 3529 3530
3460 1 3530 3531
3461 1 3531 3532
3462 1 3532 3533
3463 1 3533 3534
3464 1 3534 3535
3465 1 3535 3536
3466 1 3536 3537
3467 1 3537 3538
3468 1 3538 3539
3469 1 3539 3540
3470 1 3540 3541
3471 1 3541 3542
3472 1 3542 3543
3473 1 3543 3544
3474 1 3544 3545
3475 1 3545 3546
3476 1 3546 3547
3477 1 3547 3548
3478 1 3548 3549
3479 1 3549 3550
3480 1 3551 3552
3481 1 3552 3553
3482 1 3553 3554
3483 1 3554 3555
3484 1 3555 3556
3485 1 3556 3557
3486 1 3557 3558
3487 1 3558 3559
3488 1 3559 3560
3489 1 3560 3561
3490 1 3561 3562
3491 1 3562 3563
3492 1 3563 3564
3493 1 3564 3565
3494 1 3565 3566
3495 1 3566 3567
3496 1 3567 3568
3497 1 3568 3569
3498 1 3569 3570
3499 1 3570 3571
3500 1 3571 3572
3501 1 3572 3573
3502 1 3573 3574
3503 1 3574 3575
3504 1 3575 3576
3505 1 3576 3577
3506 1 3577 3578
3507 1 3578 3579
3508 1 3579 3580
3509 1 3580 3581
3510 1 3581 3582
3511 1 3582 3583
3512 1 3583 3584
3513 1 3584 3585
3514 1 3585 3586
3515 1 3586 3587
3516 1 3587 3588
3517 1 3588 3589
3518 1 3589 3590
3519 1 3590 3591
3520 1 3591 3592
3521 1 3592 3593
3522 1 3593 3594
3523 1 3594 3595
3524 1 3595 3596
3525 1 3596 3597
3526 1 3597 3598
3527 1 3598 3599
3528 1 3599 3600
3529 1 3601 3602
3530 1 3602 3603
3531 1 3603 3604
3532 1 3604 3605
3533 1 3605 3606
3534 1 3606 3607
3535 1 3607 3608
3536 1 3608 3609
3537 1 3609 3610
3538 1 3610 3611
3539 1 3611 3612
3540 1 3612 3613
3541 1 3613 3614
3542 1 3614 3615
3543 1 3615 3616
3544 1 3616 3617
3545 1 3617 3618
3546 1 3618 3619
3547 1 3619 3620
3548 1 3620 3621
3549 1 3621 3622
3550 1 3622 3623
3551 1 3623 3624
3552 1 3624 3625
3553 1 3625 3626
3554 1 3626 3627
3555 1 3627 3628
3556 1 3628 3629
3557 1 3629 3630
3558 1 3630 3631
3559 1 3631 3632
3560 1 3632 3633
3561 1 3633 3634
3562 1 3634 3635
3563 1 3635 3636
3564 1 3636 3637
3565 1 3637 3638
3566 1 3638 3639
3567 1 3639 3640
3568 1 3640 3641
3569 1 3641 3642
3570 1 3642 3643
3571 1 3643 3644
3572 1 3644 3645
3573 1 3645 3646
3574 1 3646 3647
3575 1 3647 3648
3576 1 3648 3649
3577 1 3649 3650
3578 1 3651 3652
3579 1 3652 3653
3580 1 3653 3654
3581 1 3654 3655
3582 1 3655 3656
3583 1 3656 3657
3584 1 3657 3658
3585 1 3658 3659
3586 1 3659 3660
3587 1 3660 3661
3588 1 3661 3662
3589 1 3662 3663
3590 1 3663 3664
3591 1 3664 3665
3592 1 3665 3666
3593 1 3666 3667
3594 1 3667 3668
3595 1 3668 3669
3596 1 3669 3670
3597 1 3670 3671
3598 1 3671 3672
3599 1 3672 3673
3600 1 3673 3674
3601 1 3674 3675
3602 1 3675 3676
3603 1 3676 3677
3604 1 3677 3678
3605 1 3678 3679
3606 1 3679 3680
3607 1 3680 3681
3608 1 3681 3682
3609 1 3682 3683
3610 1 3683 3684
3611 1 3684 3685
3612 1 3685 3686
3613 1 3686 3687
3614 1 3687 3688
3615 1 3688 3689
3616 1 3689 3690
3617 1 3690 3691
3618 1 3691 3692
3619 1 3692 3693
3620 1 3693 3694
3621 1 3694 3695
3622 1 3695 3696
3623 1 3696 3697
3624 1 3697 3698
3625 1 3698 3699
3626 1 3699 3700
3627 1 3701 3702
3628 1 3702 3703
3629 1 3703 3704
3630 1 3704 3705
3631 1 3705 3706
3632 1 3706 3707
3633 1 3707 3708
3634 1 3708 3709
3635 1 3709 3710
3636 1 3710 3711
3637 1 3711 3712
3638 1 3712 3713
3639 1 3713 3714
3640 1 3714 3715
3641 1 3715 3716
3642 1 3716 3717
3643 1 3717 3718
3644 1 3718 3719
3645 1 3719 3720
3646 1 3720 3721
3647 1 3721 3722
3648 1 3722 3723
3649 1 3723 3724
3650 1 3724 3725
3651 1 3725 3726
3652 1 3726 3727
3653 1 3727 3728
3654 1 3728 3729
3655 1 3729 3730
3656 1 3730 3731
3657 1 3731 3732
3658 1 3732 3733
3659 1 3733 3734
3660 1 3734 3735
3661 1 3735 3736
3662 1 3736 3737
3663 1 3737 3738
3664 1 3738 3739
3665 1 3739 3740
3666 1 3740 3741
3667 1 3741 3742
3668 1 3742 3743
3669 1 3743 3744
3670 1 3744 3745
3671 1 3745 3746
3672 1 3746 3747
3673 1 3747 3748
3674 1 3748 3749
3675 1 3749 3750
3676 1 3751 3752
3677 1 3752 3753
3678 1 3753 3754
3679 1 3754 3755
3680 1 3755 3756
3681 1 3756 3757
3682 1 3757 3758
3683 1 3758 3759
3684 1 3759 3760
3685 1 3760 3761
3686 1 3761 3762
3687 1 3762 3763
3688 1 3763 3764
3689 1 3764 3765
3690 1 3765 3766
3691 1 3766 3767
3692 1 3767 3768
3693 1 3768 3769
3694 1 3769 3770
3695 1 3770 3771
3696 1 3771 3772
3697 1 3772 3773
3698 1 3773 3774
3699 1 3774 3775
3700 1 3775 3776
3701 1 3776 3777
3702 1 3777 3778
3703 1 3778 3779
3704 1 3779 3780
3705 1 3780 3781
3706 1 3781 3782
3707 1 3782 3783
3708 1 3783 3784
3709 1 3784 3785
3710 1 3785 3786
3711 1 3786 3787
3712 1 3787 3788
3713 1 3788 3789
3714 1 3789 3790
3715 1 3790 3791
3716 1 3791 3792
3717 1 3792 3793
3718 1 3793 3794
3719 1 3794 3795
3720 1 3795 3796
3721 1 3796 3797
3722 1 3797 3798
3723 1 3798 3799
3724 1 3799 3800
3725 1 3801 3802
3726 1 3802 3803
3727 1 3803 3804
3728 1 3804 3805
3729 1 3805 3806
3730 1 3806 3807
3731 1 3807 3808
3732 1 3808 3809
3733 1 3809 3810
3734 1 3810 3811
3735 1 3811 3812
3736 1 3812 3813
3737 1 3813 3814
3738 1 3814 3815
3739 1 3815 3816
3740 1 3816 3817
3741 1 3817 3818
3742 1 3818 3819
3743 1 3819 3820
3744 1 3820 3821
3745 1 3821 3822
3746 1 3822 3823
3747 1 3823 3824
3748 1 3824 3825
3749 1 3825 3826
3750 1 3826 3827
3751 1 3827 3828
3752 1 3828 3829
3753 1 3829 3830
3754 1 3830 3831
3755 1 3831 3832
3756 1 3832 3833
3757 1 3833 3834
3758 1 3834 3835
3759 1 3835 3836
3760 1 3836 3837
3761 1 3837 3838
3762 1 3838 3839
3763 1 3839 3840
3764 1 3840 3841
3765 1 3841 3842
3766 1 3842 3843
3767 1 3843 3844
3768 1 3844 3845
3769 1 3845 3846
3770 1 3846 3847
3771 1 3847 3848
3772 1 3848 3849
3773 1 3849 3850
3774 1 3851 3852
3775 1 3852 3853
3776 1 3853 3854
3777 1 3854 3855
3778 1 3855 3856
3779 1 3856 3857
3780 1 3857 3858
3781 1 3858 3859
3782 1 3859 3860
3783 1 3860 3861
3784 1 3861 3862
3785 1 3862 3863
3786 1 3863 3864
3787 1 3864 3865
3788 1 3865 3866
3789 1 3866 3867
3790 1 3867 3868
3791 1 3868 3869
3792 1 3869 3870
3793 1 3870 3871
3794 1 3871 3872
3795 1 3872 3873
3796 1 3873 3874
3797 1 3874 3875
3798 1 3875 3876
3799 1 3876 3877
3800 1 3877 3878
3801 1 3878 3879
3802 1 3879 3880
3803 1 3880 3881
3804 1 3881 3882
3805 1 3882 3883
3806 1 3883 3884
3807 1 3884 3885
3808 1 3885 3886
3809 1 3886 3887
3810 1 3887 3888
3811 1 3888 3889
3812 1 3889 3890
3813 1 3890 3891
3814 1 3891 3892
3815 1 3892 3893
3816 1 3893 3894
3817 1 3894 3895
3818 1 3895 3896
3819 1 3896 3897
3820 1 3897 3898
3821 1 3898 3899
3822 1 3899 3900
3823 1 3901 3902
3824 1 3902 3903
3825 1 3903 3904
3826 1 3904 3905
3827 1 3905 3906
3828 1 3906 3907
3829 1 3907 3908
3830 1 3908 3909
3831 1 3909 3910
3832 1 3910 3911
3833 1 3911 3912
3834 1 3912 3913
3835 1 3913 3914
3836 1 3914 3915
3837 1 3915 3916
3838 1 3916 3917
3839 1 3917 3918
3840 1 3918 3919
3841 1 3919 3920
3842 1 3920 3921
3843 1 3921 3922
3844 1 3922 3923
3845 1 3923 3924
3846 1 3924 3925
3847 1 3925 3926
3848 1 3926 3927
3849 1 3927 3928
3850 1 3928 3929
3851 1 3929 3930
3852 1 3930 3931
3853 1 3931 3932
3854 1 3932 3933
3855 1 3933 3934
3856 1 3934 3935
3857 1 3935 3936
3858 1 3936 3937
3859 1 3937 3938
3860 1 3938 3939
3861 1 3939 3940
3862 1 3940 3941
3863 1 3941 3942
3864 1 3942 3943
3865 1 3943 3944
3866 1 3944 3945
3867 1 3945 3946
3868 1 3946 3947
3869 1 3947 3948
3870 1 3948 3949
3871 1 3949 3950
3872 1 3951 3952
3873 1 3952 3953
3874 1 3953 3954
3875 1 3954 3955
3876 1 3955 3956
3877 1 3956 3957
3878 1 3957 3958
3879 1 3958 3959
3880 1 3959 3960
3881 1 3960 3961
3882 1 3961 3962
3883 1 3962 3963
3884 1 3963 3964
3885 1 3964 3965
3886 1 3965 3966
3887 1 3966 3967
3888 1 3967 3968
3889 1 3968 3969
3890 1 3969 3970
3891 1 3970 3971
3892 1 3971 3972
3893 1 3972 3973
3894 1 3973 3974
3895 1 3974 3975
3896 1 3975 3976
3897 1 3976 3977
3898 1 3977 3978
3899 1 3978 3979
3900 1 3979 3980
3901 1 3980 3981
3902 1 3981 3982
3903 1 3982 3983
3904 1 3983 3984
3905 1 3984 3985
3906 1 3985 3986
3907 1 3986 3987
3908 1 3987 3988
3909 1 3988 3989
3910 1 3989 3990
3911 1 3990 3991
3912 1 3991 3992
3913 1 3992 3993
3914 1 3993 3994
3915 1 3994 3995
3916 1 3995 3996
3917 1 3996 3997
3918 1 3997 3998
3919 1 3998 3999
3920 1 3999 4000
3921 1 4001 4002
3922 1 4002 4003
3923 1 4003 4004
3924 1 4004 4005
3925 1 4005 4006
3926 1 4006 4007
3927 1 4007 4008
3928 1 4008 4009
3929 1 4009 4010
3930 1 4010 4011
3931 1 4011 4012
3932 1 4012 4013
3933 1 4013 4014
3934 1 4014 4015
3935 1 4015 4016
3936 1 4016 4017
3937 1 4017 4018
3938 1 4018 4019
3939 1 4019 4020
3940 1 4020 4021
3941 1 4021 4022
3942 1 4022 4023
3943 1 4023 4024
3944 1 4024 4025
3945 1 4025 4026
3946 1 4026 4027
3947 1 4027 4028
3948 1 4028 4029
3949 1 4029 4030
3950 1 4030 4031
3951 1 4031 4032
3952 1 4032 4033
3953 1 4033 4034
3954 1 4034 4035
3955 1 4035 4036
3956 1 4036 4037
3957 1 4037 4038
3958 1 4038 4039
3959 1 4039 4040
3960 1 4040 4041
3961 1 4041 4042
3962 1 4042 4043
3963 1 4043 4044
3964 1 4044 4045
3965 1 4045 4046
3966 1 4046 4047
3967 1 4047 4048
3968 1 4048 4049
3969 1 4049 4050
3970 1 4051 4052
3971 1 4052 4053
3972 1 4053 4054
3973 1 4054 4055
3974 1 4055 4056
3975 1 4056 4057
3976 1 4057 4058
3977 1 4058 4059
3978 1 4059 4060
3979 1 4060 4061
3980 1 4061 4062
3981 1 4062 4063
3982 1 4063 4064
3983 1 4064 4065
3984 1 4065 4066
3985 1 4066 4067
3986 1 4067 4068
3987 1 4068 4069
3988 1 4069 4070
3989 1 4070 4071
3990 1 4071 4072
3991 1 4072 4073
3992 1 4073 4074
3993 1 4074 4075
3994 1 4075 4076
3995 1 4076 4077
3996 1 4077 4078
3997 1 4078 4079
3998 1 4079 4080
3999 1 4080 4081
4000 1 4081 4082
4001 1 4082 4083
4002 1 4083 4084
4003 1 4084 4085
4004 1 4085 4086
4005 1 4086 4087
4006 1 4087 4088
4007 1 4088 4089
4008 1 4089 4090
4009 1 4090 4091
4010 1 4091 4092
4011 1 4092 4093
4012 1 4093 4094
4013 1 4094 4095
4014 1 4095 4096
4015 1 4096 4097
4016 1 4097 4098
4017 1 4098 4099
4018 1 4099 4100
4019 1 4101 4102
4020 1 4102 4103
4021 1 4103 4104
4022 1 4104 4105
4023 1 4105 4106
4024 1 4106 4107
4025 1 4107 4108
4026 1 4108 4109
4027 1 4109 4110
4028 1 4110 4111
4029 1 4111 4112
4030 1 4112 4113
4031 1 4113 4114
4032 1 4114 4115
4033 1 4115 4116
4034 1 4116 4117
4035 1 4117 4118
4036 1 4118 4119
4037 1 4119 4120
4038 1 4120 4121
4039 1 4121 4122
4040 1 4122 4123
4041 1 4123 4124
4042 1 4124 4125
4043 1 4125 4126
4044 1 4126 4127
4045 1 4127 4128
4046 1 4128 4129
4047 1 4129 4130
4048 1 4130 4131
4049 1 4131 4132
4050 1 4132 4133
4051 1 4133 4134
4052 1 4134 4135
4053 1 4135 4136
4054 1 4136 4137
4055 1 4137 4138
4056 1 4138 4139
4057 1 4139 4140
4058 1 4140 4141
4059 1 4141 4142
4060 1 4142 4143
4061 1 4143 4144
4062 1 4144 4145
4063 1 4145 4146
4064 1 4146 4147
4065 1 4147 4148
4066 1 4148 4149
4067 1 4149 4150
4068 1 4151 4152
4069 1 4152 4153
4070 1 4153 4154
4071 1 4154 4155
4072 1 4155 4156
4073 1 4156 4157
4074 1 4157 4158
4075 1 4158 4159
4076 1 4159 4160
4077 1 4160 4161
4078 1 4161 4162
4079 1 4162 4163
4080 1 4163 4164
4081 1 4164 4165
4082 1 4165 4166
4083 1 4166 4167
4084 1 4167 4168
4085 1 4168 4169
4086 1 4169 4170
4087 1 4170 4171
4088 1 4171 4172
4089 1 4172 4173
4090 1 4173 4174
4091 1 4174 4175
4092 1 4175 4176
4093 1 4176 4177
4094 1 4177 4178
4095 1 4178 4179
4096 1 4179 4180
4097 1 4180 4181
4098 1 4181 4182
4099 1 4182 4183
4100 1 4183 4184
4101 1 4184 4185
4102 1 4185 4186
4103 1 4186 4187
4104 1 4187 4188
4105 1 4188 4189
4106 1 4189 4190
4107 1 4190 4191
4108 1 4191 4192
4109 1 4192 4193
4110 1 4193 4194
4111 1 4194 4195
4112 1 4195 4196
4113 1 4196 4197
4114 1 4197 4198
4115 1 4198 4199
4116 1 4199 4200
4117 1 4201 4202
4118 1 4202 4203
4119 1 4203 4204
4120 1 4204 4205
4121 1 4205 4206
4122 1 4206 4207
4123 1 4207 4208
4124 1 4208 4209
4125 1 4209 4210
4126 1 4210 4211
4127 1 4211 4212
4128 1 4212 4213
4129 1 4213 4214
4130 1 4214 4215
4131 1 4215 4216
4132 1 4216 4217
4133 1 4217 4218
4134 1 4218 4219
4135 1 4219 4220
4136 1 4220 4221
4137 1 4221 4222
4138 1 4222 4223
4139 1 4223 4224
4140 1 4224 4225
4141 1 4225 4226
4142 1 4226 4227
4143 1 4227 4228
4144 1 4228 4229
4145 1 4229 4230
4146 1 4230 4231
4147 1 4231 4232
4148 1 4232 4233
4149 1 4233 4234
4150 1 4234 4235
4151 1 4235 4236
4152 1 4236 4237
4153 1 4237 4238
4154 1 4238 4239
4155 1 4239 4240
4156 1 4240 4241
4157 1 4241 4242
4158 1 4242 4243
4159 1 4243 4244
4160 1 4244 4245
4161 1 4245 4246
4162 1 4246 4247
4163 1 4247 4248
4164 1 4248 4249
4165 1 4249 4250
4166 1 4251 4252
4167 1 4252 4253
4168 1 4253 4254
4169 1 4254 4255
4170 1 4255 4256
4171 1 4256 4257
4172 1 4257 4258
4173 1 4258 4259
4174 1 4259 4260
4175 1 4260 4261
4176 1 4261 4262
4177 1 4262 4263
4178 1 4263 4264
4179 1 4264 4265
4180 1 4265 4266
4181 1 4266 4267
4182 1 4267 4268
4183 1 4268 4269
4184 1 4269 4270
4185 1 4270 4271
4186 1 4271 4272
4187 1 4272 4273
4188 1 4273 4274
4189 1 4274 4275
4190 1 4275 4276
4191 1 4276 4277
4192 1 4277 4278
4193 1 4278 4279
4194 1 4279 4280
4195 1 4280 4281
4196 1 4281 4282
4197 1 4282 4283
4198 1 4283 4284
4199 1 4284 4285
4200 1 4285 4286
4201 1 4286 4287
4202 1 4287 4288
4203 1 4288 4289
4204 1 4289 4290
4205 1 4290 4291
4206 1 4291 4292
4207 1 4292 4293
4208 1 4293 4294
4209 1 4294 4295
4210 1 4295 4296
4211 1 4296 4297
4212 1 4297 4298
4213 1 4298 4299
4214 1 4299 4300
4215 1 4301 4302
4216 1 4302 4303
4217 1 4303 4304
4218 1 4304 4305
4219 1 4305 4306
4220 1 4306 4307
4221 1 4307 4308
4222 1 4308 4309
4223 1 4309 4310
4224 1 4310 4311
4225 1 4311 4312
4226 1 4312 4313
4227 1 4313 4314
4228 1 4314 4315
4229 1 4315 4316
4230 1 4316 4317
4231 1 4317 4318
4232 1 4318 4319
4233 1 4319 4320
4234 1 4320 4321
4235 1 4321 4322
4236 1 4322 4323
4237 1 4323 4324
4238 1 4324 4325
4239 1 4325 4326
4240 1 4326 4327
4241 1 4327 4328
4242 1 4328 4329
4243 1 4329 4330
4244 1 4330 4331
4245 1 4331 4332
4246 1 4332 4333
4247 1 4333 4334
4248 1 4334 4335
4249 1 4335 4336
4250 1 4336 4337
4251 1 4337 4338
4252 1 4338 4339
4253 1 4339 4340
4254 1 4340 4341
4255 1 4341 4342
4256 1 4342 4343
4257 1 4343 4344
4258 1 4344 4345
4259 1 4345 4346
4260 1 4346 4347
4261 1 4347 4348
4262 1 4348 4349
4263 1 4349 4350
4264 1 4351 4352
4265 1 4352 4353
4266 1 4353 4354
4267 1 4354 4355
4268 1 4355 4356
4269 1 4356 4357
4270 1 4357 4358
4271 1 4358 4359
4272 1 4359 4360
4273 1 4360 4361
4274 1 4361 4362
4275 1 4362 4363
4276 1 4363 4364
4277 1 4364 4365
4278 1 4365 4366
4279 1 4366 4367
4280 1 4367 4368
4281 1 4368 4369
4282 1 4369 4370
4283 1 4370 4371
4284 1 4371 4372
4285 1 4372 4373
4286 1 4373 4374
4287 1 4374 4375
4288 1 4375 4376
4289 1 4376 4377
4290 1 4377 4378
4291 1 4378 4379
4292 1 4379 4380
4293 1 4380 4381
4294 1 4381 4382
4295 1 4382 4383
4296 1 4383 4384
4297 1 4384 4385
4298 1 4385 4386
4299 1 4386 4387
4300 1 4387 4388
4301 1 4388 4389
4302 1 4389 4390
4303 1 4390 4391
4304 1 4391 4392
4305 1 4392 4393
4306 1 4393 4394
4307 1 4394 4395
4308 1 4395 4396
4309 1 4396 4397
4310 1 4397 4398
4311 1 4398 4399
4312 1 4399 4400
4313 1 4401 4402
4314 1 4402 4403
4315 1 4403 4404
4316 1 4404 4405
4317 1 4405 4406
4318 1 4406 4407
4319 1 4407 4408
4320 1 4408 4409
4321 1 4409 4410
4322 1 4410 4411
4323 1 4411 4412
4324 1 4412 4413
4325 1 4413 4414
4326 1 4414 4415
4327 1 4415 4416
4328 1 4416 4417
4329 1 4417 4418
4330 1 4418 4419
4331 1 4419 4420
4332 1 4420 4421
4333 1 4421 4422
4334 1 4422 4423
4335 1 4423 4424
4336 1 4424 4425
4337 1 4425 4426
4338 1 4426 4427
4339 1 4427 4428
4340 1 4428 4429
4341 1 4429 4430
4342 1 4430 4431
4343 1 4431 4432
4344 1 4432 4433
4345 1 4433 4434
4346 1 4434 4435
4347 1 4435 4436
4348 1 4436 4437
4349 1 4437 4438
4350 1 4438 4439
4351 1 4439 4440
4352 1 4440 4441
4353 1 4441 4442
4354 1 4442 4443
4355 1 4443 4444
4356 1 4444 4445
4357 1 4445 4446
4358 1 4446 4447
4359 1 4447 4448
4360 1 4448 4449
4361 1 4449 4450
4362 1 4451 4452
4363 1 4452 4453
4364 1 4453 4454
4365 1 4454 4455
4366 1 4455 4456
4367 1 4456 4457
4368 1 4457 4458
4369 1 4458 4459
4370 1 4459 4460
4371 1 4460 4461
4372 1 4461 4462
4373 1 4462 4463
4374 1 4463 4464
4375 1 4464 4465
4376 1 4465 4466
4377 1 4466 4467
4378 1 4467 4468
4379 1 4468 4469
4380 1 4469 4470
4381 1 4470 4471
4382 1 4471 4472
4383 1 4472 4473
4384 1 4473 4474
4385 1 4474 4475
4386 1 4475 4476
4387 1 4476 4477
4388 1 4477 4478
4389 1 4478 4479
4390 1 4479 4480
4391 1 4480 4481
4392 1 4481 4482
4393 1 4482 4483
4394 1 4483 4484
4395 1 4484 4485
4396 1 4485 4486
4397 1 4486 4487
4398 1 4487 4488
4399 1 4488 4489
4400 1 4489 4490
4401 1 4490 4491
4402 1 4491 4492
4403 1 4492 4493
4404 1 4493 4494
4405 1 4494 4495
4406 1 4495 4496
4407 1 4496 4497
4408 1 4497 4498
4409 1 4498 4499
4410 1 4499 4500
4411 1 4501 4502
4412 1 4502 4503
4413 1 4503 4504
4414 1 4504 4505
4415 1 4505 4506
4416 1 4506 4507
4417 1 4507 4508
4418 1 4508 4509
4419 1 4509 4510
4420 1 4510 4511
4421 1 4511 4512
4422 1 4512 4513
4423 1 4513 4514
4424 1 4514 4515
4425 1 4515 4516
4426 1 4516 4517
4427 1 4517 4518
4428 1 4518 4519
4429 1 4519 4520
4430 1 4520 4521
4431 1 4521 4522
4432 1 4522 4523
4433 1 4523 4524
4434 1 4524 4525
4435 1 4525 4526
4436 1 4526 4527
4437 1 4527 4528
4438 1 4528 4529
4439 1 4529 4530
4440 1 4530 4531
4441 1 4531 4532
4442 1 4532 4533
4443 1 4533 4534
4444 1 4534 4535
4445 1 4535 4536
4446 1 4536 4537
4447 1 4537 4538
4448 1 4538 4539
4449 1 4539 4540
4450 1 4540 4541
4451 1 4541 4542
4452 1 4542 4543
4453 1 4543 4544
4454 1 4544 4545
4455 1 4545 4546
4456 1 4546 4547
4457 1 4547 4548
4458 1 4548 4549
4459 1 4549 4550
4460 1 4551 4552
4461 1 4552 4553
4462 1 4553 4554
4463 1 4554 4555
4464 1 4555 4556
4465 1 4556 4557
4466 1 4557 4558
4467 1 4558 4559
4468 1 4559 4560
4469 1 4560 4561
4470 1 4561 4562
4471 1 4562 4563
4472 1 4563 4564
4473 1 4564 4565
4474 1 4565 4566
4475 1 4566 4567
4476 1 4567 4568
4477 1 4568 4569
4478 1 4569 4570
4479 1 4570 4571
4480 1 4571 4572
4481 1 4572 4573
4482 1 4573 4574
4483 1 4574 4575
4484 1 4575 4576
4485 1 4576 4577
4486 1 4577 4578
4487 1 4578 4579
4488 1 4579 4580
4489 1 4580 4581
4490 1 4581 4582
4491 1 4582 4583
4492 1 4583 4584
4493 1 4584 4585
4494 1 4585 4586
4495 1 4586 4587
4496 1 4587 4588
4497 1 4588 4589
4498 1 4589 4590
4499 1 4590 4591
4500 1 4591 4592
4501 1 4592 4593
4502 1 4593 4594
4503 1 4594 4595
4504 1 4595 4596
4505 1 4596 4597
4506 1 4597 4598
4507 1 4598 4599
4508 1 4599 4600
4509 1 4601 4602
4510 1 4602 4603
4511 1 4603 4604
4512 1 4604 4605
4513 1 4605 4606
4514 1 4606 4607
4515 1 4607 4608
4516 1 4608 4609
4517 1 4609 4610
4518 1 4610 4611
4519 1 4611 4612
4520 1 4612 4613
4521 1 4613 4614
4522 1 4614 4615
4523 1 4615 4616
4524 1 4616 4617
4525 1 4617 4618
4526 1 4618 4619
4527 1 4619 4620
4528 1 4620 4621
4529 1 4621 4622
4530 1 4622 4623
4531 1 4623 4624
4532 1 4624 4625
4533 1 4625 4626
4534 1 4626 4627
4535 1 4627 4628
4536 1 4628 4629
4537 1 4629 4630
4538 1 4630 4631
4539 1 4631 4632
4540 1 4632 4633
4541 1 4633 4634
4542 1 4634 4635
4543 1 4635 4636
4544 1 4636 4637
4545 1 4637 4638
4546 1 4638 4639
4547 1 4639 4640
4548 1 4640 4641
4549 1 4641 4642
4550 1 4642 4643
4551 1 4643 4644
4552 1 4644 4645
4553 1 4645 4646
4554 1 4646 4647
4555 1 4647 4648
4556 1 4648 4649
4557 1 4649 4650
4558 1 4651 4652
4559 1 4652 4653
4560 1 4653 4654
4561 1 4654 4655
4562 1 4655 4656
4563 1 4656 4657
4564 1 4657 4658
4565 1 4658 4659
4566 1 4659 4660
4567 1 4660 4661
4568 1 4661 4662
4569 1 4662 4663
4570 1 4663 4664
4571 1 4664 4665
4572 1 4665 4666
4573 1 4666 4667
4574 1 4667 4668
4575 1 4668 4669
4576 1 4669 4670
4577 1 4670 4671
4578 1 4671 4672
4579 1 4672 4673
4580 1 4673 4674
4581 1 4674 4675
4582 1 4675 4676
4583 1 4676 4677
4584 1 4677 4678
4585 1 4678 4679
4586 1 4679 4680
4587 1 4680 4681
4588 1 4681 4682
4589 1 4682 4683
4590 1 4683 4684
4591 1 4684 4685
4592 1 4685 4686
4593 1 4686 4687
4594 1 4687 4688
4595 1 4688 4689
4596 1 4689 4690
4597 1 4690 4691
4598 1 4691 4692
4599 1 4692 4693
4600 1 4693 4694
4601 1 4694 4695
4602 1 4695 4696
4603 1 4696 4697
4604 1 4697 4698
4605 1 4698 4699
4606 1 4699 4700
4607 1 4701 4702
4608 1 4702 4703
4609 1 4703 4704
4610 1 4704 4705
4611 1 4705 4706
4612 1 4706 4707
4613 1 4707 4708
4614 1 4708 4709
4615 1 4709 4710
4616 1 4710 4711
4617 1 4711 4712
4618 1 4712 4713
4619 1 4713 4714
4620 1 4714 4715
4621 1 4715 4716
4622 1 4716 4717
4623 1 4717 4718
4624 1 4718 4719
4625 1 4719 4720
4626 1 4720 4721
4627 1 4721 4722
4628 1 4722 4723
4629 1 4723 4724
4630 1 4724 4725
4631 1 4725 4726
4632 1 4726 4727
4633 1 4727 4728
4634 1 4728 4729
4635 1 4729 4730
4636 1 4730 4731
4637 1 4731 4732
4638 1 4732 4733
4639 1 4733 4734
4640 1 4734 4735
4641 1 4735 4736
4642 1 4736 4737
4643 1 4737 4738
4644 1 4738 4739
4645 1 4739 4740
4646 1 4740 4741
4647 1 4741 4742
4648 1 4742 4743
4649 1 4743 4744
4650 1 4744 4745
4651 1 4745 4746
4652 1 4746 4747
4653 1 4747 4748
4654 1 4748 4749
4655 1 4749 4750
4656 1 4751 4752
4657 1 4752 4753
4658 1 4753 4754
4659 1 4754 4755
4660 1 4755 4756
4661 1 4756 4757
4662 1 4757 4758
4663 1 4758 4759
4664 1 4759 4760
4665 1 4760 4761
4666 1 4761 4762
4667 1 4762 4763
4668 1 4763 4764
4669 1 4764 4765
4670 1 4765 4766
4671 1 4766 4767
4672 1 4767 4768
4673 1 4768 4769
4674 1 4769 4770
4675 1 4770 4771
4676 1 4771 4772
4677 1 4772 4773
4678 1 4773 4774
4679 1 4774 4775
4680 1 4775 4776
4681 1 4776 4777
4682 1 4777 4778
4683 1 4778 4779
4684 1 4779 4780
4685 1 4780 4781
4686 1 4781 4782
4687 1 4782 4783
4688 1 4783 4784
4689 1 4784 4785
4690 1 4785 4786
4691 1 4786 4787
4692 1 4787 4788
4693 1 4788 4789
4694 1 4789 4790
4695 1 4790 4791
4696 1 4791 4792
4697 1 4792 4793
4698 1 4793 4794
4699 1 4794 4795
4700 1 4795 4796
4701 1 4796 4797
4702 1 4797 4798
4703 1 4798 4799
4704 1 4799 4800
4705 1 4801 4802
4706 1 4802 4803
4707 1 4803 4804
4708 1 4804 4805
4709 1 4805 4806
4710 1 4806 4807
4711 1 4807 4808
4712 1 4808 4809
4713 1 4809 4810
4714 1 4810 4811
4715 1 4811 4812
4716 1 4812 4813
4717 1 4813 4814
4718 1 4814 4815
4719 1 4815 4816
4720 1 4816 4817
4721 1 4817 4818
4722 1 4818 4819
4723 1 4819 4820
4724 1 4820 4821
4725 1 4821 4822
4726 1 4822 4823
4727 1 4823 4824
4728 1 4824 4825
4729 1 4825 4826
4730 1 4826 4827
4731 1 4827 4828
4732 1 4828 4829
4733 1 4829 4830
4734 1 4830 4831
4735 1 4831 4832
4736 1 4832 4833
4737 1 4833 4834
4738 1 4834 4835
4739 1 4835 4836
4740 1 4836 4837
4741 1 4837 4838
4742 1 4838 4839
4743 1 4839 4840
4744 1 4840 4841
4745 1 4841 4842
4746 1 4842 4843
4747 1 4843 4844
4748 1 4844 4845
4749 1 4845 4846
4750 1 4846 4847
4751 1 4847 4848
4752 1 4848 4849
4753 1 4849 4850
4754 1 4851 4852
4755 1 4852 4853
4756 1 4853 4854
4757 1 4854 4855
4758 1 4855 4856
4759 1 4856 4857
4760 1 4857 4858
4761 1 4858 4859
4762 1 4859 4860
4763 1 4860 4861
4764 1 4861 4862
4765 1 4862 4863
4766 1 4863 4864
4767 1 4864 4865
4768 1 4865 4866
4769 1 4866 4867
4770 1 4867 4868
4771 1 4868 4869
4772 1 4869 4870
4773 1 4870 4871
4774 1 4871 4872
4775 1 4872 4873
4776 1 4873 4874
4777 1 4874 4875
4778 1 4875 4876
4779 1 4876 4877
4780 1 4877 4878
4781 1 4878 4879
4782 1 4879 4880
4783 1 4880 4881
4784 1 4881 4882
4785 1 4882 4883
4786 1 4883 4884
4787 1 4884 4885
4788 1 4885 4886
4789 1 4886 4887
4790 1 4887 4888
4791 1 4888 4889
4792 1 4889 4890
4793 1 4890 4891
4794 1 4891 4892
4795 1 4892 4893
4796 1 4893 4894
4797 1 4894 4895
4798 1 4895 4896
4799 1 4896 4897
4800 1 4897 4898
4801 1 4898 4899
4802 1 4899 4900
4803 1 4901 4902
4804 1 4902 4903
4805 1 4903 4904
4806 1 4904 4905
4807 1 4905 4906
4808 1 4906 4907
4809 1 4907 4908
4810 1 4908 4909
4811 1 4909 4910
4812 1 4910 4911
4813 1 4911 4912
4814 1 4912 4913
4815 1 4913 4914
4816 1 4914 4915
4817 1 4915 4916
4818 1 4916 4917
4819 1 4917 4918
4820 1 4918 4919
4821 1 4919 4920
4822 1 4920 4921
4823 1 4921 4922
4824 1 4922 4923
4825 1 4923 4924
4826 1 4924 4925
4827 1 4925 4926
4828 1 4926 4927
4829 1 4927 4928
4830 1 4928 4929
4831 1 4929 4930
4832 1 4930 4931
4833 1 4931 4932
4834 1 4932 4933
4835 1 4933 4934
4836 1 4934 4935
4837 1 4935 4936
4838 1 4936 4937
4839 1 4937 4938
4840 1 4938 4939
4841 1 4939 4940
4842 1 4940 4941
4843 1 4941 4942
4844 1 4942 4943
4845 1 4943 4944
4846 1 4944 4945
4847 1 4945 4946
4848 1 4946 4947
4849 1 4947 4948
4850 1 4948 4949
4851 1 4949 4950
4852 1 4951 4952
4853 1 4952 4953
4854 1 4953 4954
4855 1 4954 4955
4856 1 4955 4956
4857 1 4956 4957
4858 1 4957 4958
4859 1 4958 4959
4860 1 4959 4960
4861 1 4960 4961
4862 1 4961 4962
4863 1 4962 4963
4864 1 4963 4964
4865 1 4964 4965
4866 1 4965 4966
4867 1 4966 4967
4868 1 4967 4968
4869 1 4968 4969
4870 1 4969 4970
4871 1 4970 4971
4872 1 4971 4972
4873 1 4972 4973
4874 1 4973 4974
4875 1 4974 4975
4876 1 4975 4976
4877 1 4976 4977
4878 1 4977 4978
4879 1 4978 4979
4880 1 4979 4980
4881 1 4980 4981
4882 1 4981 4982
4883 1 4982 4983
4884 1 4983 4984
4885 1 4984 4985
4886 1 4985 4986
4887 1 4986 4987
4888 1 4987 4988
4889 1 4988 4989
4890 1 4989 4990
4891 1 4990 4991
4892 1 4991 4992
4893 1 4992 4993
4894 1 4993 4994
4895 1 4994 4995
4896 1 4995 4996
4897 1 4996 4997
4898 1 4997 4998
4899 1 4998 4999
4900 1 4999 5000

