LAMMPS data file via write_data, version 10 Dec 2025, timestep = 500000, units = lj

5000 atoms
1 atom types
4900 bonds
1 bond types

-6.995113678856226 52.083148118058276 xlo xhi
-7.002970278341504 52.09845810310273 ylo yhi
-6.970607053132763 52.06415840636898 zlo zhi

Masses

1 1

Bond Coeffs # fene

1 30 1.5 1 1

Atoms # full

952 20 1 0 -3.5562785854643124 -3.858775091496626 -4.972780909125061 0 0 0
951 20 1 0 -3.9079240661865096 -4.714353950196066 -5.092038891242937 0 0 0
1037 21 1 0 37.81546544933302 -4.378064764658567 -5.127137581328575 0 0 0
1038 21 1 0 38.46043885218756 -4.142188513010186 -6.060696680245314 0 0 0
186 4 1 0 25.314206899092373 -1.4326432096169048 -6.8034408182207295 0 0 0
187 4 1 0 25.875698144091494 -1.9213408580914968 -5.925392934333905 0 0 0
188 4 1 0 26.245443494146937 -2.384656598215819 -4.98382161848888 0 0 0
1059 22 1 0 34.29866717712943 -0.5441344057549594 -6.575781119313468 0 0 0
1057 22 1 0 36.24309471398532 -0.5721790363817486 -5.502975772229849 0 0 0
1058 22 1 0 35.268447067538666 -0.6827610725281963 -6.062360032507995 0 0 0
1056 22 1 0 37.25737847899112 -0.47680864179595295 -5.006848097008157 0 0 0
957 20 1 0 -3.191771995251436 1.5945378940654675 -4.810692634742735 0 0 0
958 20 1 0 -2.9475686697477625 2.7423264934548883 -5.105553207760097 0 0 0
959 20 1 0 -2.39077255434399 3.62217314424156 -5.513585262241205 0 0 0
181 4 1 0 23.580883954228526 3.414187319848347 -6.393208820605575 0 0 0
4250 85 1 0 47.22592093295855 3.6514723971271335 -6.156482334126322 -1 0 1
960 20 1 0 -2.1542464390025633 4.685011447319796 -5.913203353572252 0 0 0
961 20 1 0 -2.2010811821277 5.84100548203793 -6.189017132214059 0 0 0
180 4 1 0 23.381980074910775 4.143593335179707 -5.591924352980301 0 0 0
2288 46 1 0 39.32083885684486 4.6349396977545165 -6.146911508644486 0 0 1
2289 46 1 0 38.964943443603104 5.339509292831894 -5.274212937522226 0 0 1
2287 46 1 0 39.94780360076117 3.976322369044472 -6.9389754641938435 0 0 1
962 20 1 0 -2.1316291628711808 6.841684325720474 -6.4873949286017085 0 0 0
963 20 1 0 -2.1203447270738383 7.960947251502189 -6.735651681909556 0 0 0
3801 77 1 0 3.2993984554024722 7.065551567626326 -5.456761160084396 0 0 0
3802 77 1 0 2.6305916667694436 7.013435689213937 -4.838453446476476 0 0 0
2061 42 1 0 14.281231237979126 6.417550229939922 -4.861375069687159 0 0 1
2062 42 1 0 14.203985850744967 7.295035130776327 -5.616174420063565 0 0 1
2063 42 1 0 14.508636157657442 8.284130429535995 -6.074991020379736 0 0 1
645 13 1 0 44.381359216861945 7.579543699608877 -5.662978982522748 0 0 0
646 13 1 0 44.555888136584784 7.74058582700306 -6.725239485035258 0 0 0
964 20 1 0 -2.116075539976813 9.135458812979063 -6.55416926499581 0 0 0
965 20 1 0 -1.9145202420557645 10.303538207671759 -6.581313670866445 0 0 0
160 4 1 0 10.269347394234082 9.163463283617185 -5.600323767435258 0 0 0
159 4 1 0 9.98886966125993 8.803129673441815 -6.652021628115312 0 0 0
2064 42 1 0 14.801473088856442 9.218672979865273 -6.739217619732767 0 0 1
1072 22 1 0 28.807475931510155 9.987953798831578 -6.230682464278919 0 0 0
1071 22 1 0 28.228121488676397 9.302654686410031 -6.888170013416258 0 0 0
2050 41 1 0 35.72709794377932 9.128689213773045 -6.214174192418374 0 0 1
2049 41 1 0 35.2735380761411 8.451680639171993 -6.911724181633061 0 0 1
1073 22 1 0 29.699454885266093 10.569272367706617 -5.796979421953026 0 0 0
1074 22 1 0 30.647905051469817 11.189318382695307 -5.660883487743576 0 0 0
1075 22 1 0 31.61895119640122 11.771688850307408 -5.5212354597218285 0 0 0
1076 22 1 0 32.447293544491046 12.49788715417448 -5.1547859928820055 0 0 0
4498 90 1 0 47.87864105113694 11.960454081103327 -5.377912789315699 -1 0 0
4497 90 1 0 48.465856978482975 10.894427302799823 -5.048419131121322 -1 0 0
4499 90 1 0 47.39266069319471 12.986539351082396 -5.182468081147915 -1 0 0
4510 91 1 0 0.027198470509354474 16.93872483996891 -5.5279154058470725 0 0 0
4508 91 1 0 1.6518459251287632 15.783161527042838 -6.839219379373477 0 0 0
4509 91 1 0 0.9577610750849671 16.431247500969707 -6.090034349375125 0 0 0
988 20 1 0 12.727151909428613 16.948973456954228 -4.865792219109389 0 0 0
2775 56 1 0 35.987798008661194 16.904135863475602 -6.072050375574424 0 0 1
2776 56 1 0 36.956588747991034 16.40487901417356 -5.988634983556609 0 0 1
2777 56 1 0 37.98475461373913 16.171242328490713 -6.033863938274167 0 0 1
2778 56 1 0 39.17865759463862 16.12683405157416 -6.310158721892477 0 0 1
2779 56 1 0 40.300085553050806 16.079868209548692 -6.53660422900169 0 0 1
2781 56 1 0 42.452833429933285 15.629281949901605 -6.400994964620708 0 0 1
2780 56 1 0 41.36961427822302 15.658204097728316 -6.495222882259798 0 0 1
2782 56 1 0 43.59173637946336 15.342381082675068 -6.620072950843313 0 0 1
4511 91 1 0 -0.843972966224548 17.22502520121334 -4.9638977309497125 0 0 0
985 20 1 0 10.074725802070835 18.399141043193417 -6.294293284026895 0 0 0
984 20 1 0 9.185213953415829 18.55459755646178 -6.962963929220983 0 0 0
987 20 1 0 11.747581872984723 17.43450306927431 -5.1679023871741245 0 0 0
986 20 1 0 10.911171757169841 17.9051900848107 -5.705320115663444 0 0 0
2773 56 1 0 34.21036676805645 18.119689671045098 -6.631870025018347 0 0 1
2774 56 1 0 35.06226161981122 17.57936053000061 -6.396532854819876 0 0 1
678 14 1 0 46.71789135523232 18.931931274795502 -4.8447908611005355 0 0 0
2493 50 1 0 15.776937820397583 21.42204946770768 -6.926859767967405 0 0 1
702 15 1 0 25.374742923028673 20.159660755223424 -6.554265534131805 0 0 0
703 15 1 0 25.263717769613258 20.64017185425063 -5.5527080231930706 0 0 0
686 14 1 0 38.46619384275752 21.106919474479767 -4.857976093051205 0 0 0
684 14 1 0 40.60043328457729 21.085770875355905 -5.646959035554 0 0 0
685 14 1 0 39.46847980926044 20.992202560581813 -5.344095390124684 0 0 0
683 14 1 0 41.678907382236346 20.870994634606674 -5.738006016906272 0 0 0
682 14 1 0 42.79745810110276 20.78869144068775 -5.5071943606480165 0 0 0
681 14 1 0 43.86952127857338 20.372384211092534 -5.510659389604369 0 0 0
680 14 1 0 44.954527321289895 19.870038451284973 -5.5091037220639585 0 0 0
679 14 1 0 45.977120029270374 19.433599042928947 -5.460678614778857 0 0 0
4287 86 1 0 51.88705388821602 20.748880068402745 -6.817921540574859 -1 0 1
4286 86 1 0 51.67107008937972 21.389244461745157 -5.983002947447292 -1 0 1
753 16 1 0 5.907225754274046 22.765945956450253 -6.576068839283272 0 0 0
754 16 1 0 6.856378121300371 22.81128809511566 -6.048994291070674 0 0 0
755 16 1 0 7.804381965965411 22.89472573949974 -5.312821937973844 0 0 0
2495 50 1 0 16.294577709224306 23.540206335896254 -6.208688799129594 0 0 1
2494 50 1 0 15.929436371273843 22.46170124827268 -6.380174520611535 0 0 1
4285 86 1 0 51.614036012201495 22.300788605380582 -5.161351447141554 -1 0 1
2496 50 1 0 16.641421138997625 24.595267694443304 -6.215054388388898 0 0 1
2497 50 1 0 17.339062126841313 25.459903066785873 -6.133585194825815 0 0 1
3588 72 1 0 0.6600714155926569 25.846310810715785 -5.787364038676821 0 0 0
3589 72 1 0 1.2095977975185883 26.18658377154376 -6.778336317535935 0 0 0
2498 50 1 0 17.99956077338379 26.482056487651164 -6.155942194942656 0 0 1
2499 50 1 0 18.5486228261695 27.387780686445765 -6.023214928382299 0 0 1
2500 50 1 0 18.748565799489732 28.30631217500611 -5.698553896637791 0 0 1
4937 99 1 0 41.765808999709535 29.845435308528057 -6.421453528499075 0 0 0
4274 86 1 0 -0.9938959607663321 30.765734798032437 -5.154683314276914 0 0 1
4275 86 1 0 -1.940736136163501 30.41301241413171 -4.82318530683974 0 0 1
4273 86 1 0 -0.17784457426161113 31.438482969198436 -5.459719159306531 0 0 1
4272 86 1 0 0.695129788535436 31.840958774813465 -5.961418367997285 0 0 1
4002 81 1 0 8.754377465773354 31.927578041933824 -5.222391441740666 0 0 0
4001 81 1 0 9.57810094017872 31.70884670154274 -5.75923088139138 0 0 0
4935 99 1 0 42.44831694019325 31.80139756350295 -5.39781613829058 0 0 0
4936 99 1 0 42.16634343131382 30.82988904107283 -5.9243195140907075 0 0 0
1900 38 1 0 50.211241445067074 30.822211683830783 -5.645677751804356 -1 0 1
1899 38 1 0 50.66238045091064 30.803382812609296 -6.505106333600366 -1 0 1
4271 86 1 0 1.6316337545963775 32.41008187154115 -6.471479634317973 0 0 1
2546 51 1 0 32.57892654112202 32.67615082585516 -6.109675558366887 0 0 1
2547 51 1 0 33.31797568210124 33.34098713787105 -5.561355092351646 0 0 1
2548 51 1 0 34.118281229131526 33.946137271638754 -5.143869011373856 0 0 1
2501 51 1 0 23.49926354723171 34.61773713159836 -6.871568146680868 0 0 1
2963 60 1 0 51.5200003729095 36.21070891463837 -6.038194502657334 0 0 0
2962 60 1 0 50.922157848700316 35.50375646667494 -5.365284491514396 0 0 0
1521 31 1 0 28.890418768281318 38.09947549432642 -5.760776062655205 0 0 1
1520 31 1 0 29.209270847139518 38.907595226804744 -5.174423687536301 0 0 1
1522 31 1 0 28.278013448930828 37.510267643624935 -6.628951566507768 0 0 1
2964 60 1 0 52.05589923025616 36.95487420574483 -6.567238703612394 0 0 0
3483 70 1 0 5.726397527362661 39.910759258228666 -5.13937027447564 0 0 0
3484 70 1 0 6.054554376569506 40.90282976286373 -5.228684904601878 0 0 0
1519 31 1 0 29.47121374299137 39.95351502714561 -4.869649393991402 0 0 1
2853 58 1 0 36.35179337324481 41.078013475812355 -5.813955646689968 0 0 1
2852 58 1 0 37.21730535574377 41.00554804852481 -5.101935048257124 0 0 1
3486 70 1 0 6.024029565827095 43.13552940240783 -5.160244379451279 0 0 0
3485 70 1 0 6.221964358076027 42.01209318911266 -5.103406395966418 0 0 0
2855 58 1 0 34.22747932440684 41.51491161453192 -6.596933693124655 0 0 1
2854 58 1 0 35.33785333792912 41.28067342415985 -6.226205061942235 0 0 1
3487 70 1 0 6.129440187987304 44.30849729272869 -5.104562094471464 0 0 0
3488 70 1 0 6.290731620055047 45.282166055950945 -4.937068654305917 0 0 0
3395 68 1 0 15.735293328430743 44.36834970880416 -6.949788014136718 0 0 0
3394 68 1 0 16.734439657076713 44.394046618497796 -6.347680161776083 0 0 0
3393 68 1 0 17.789877541824687 44.472150534063516 -5.927947789077121 0 0 0
3392 68 1 0 18.8664644306201 44.475561205856565 -5.490556983051647 0 0 0
3391 68 1 0 19.93963699949149 44.73985963114865 -5.216210868312704 0 0 0
3489 70 1 0 6.643084808634216 46.37943010960563 -4.858622522473695 0 0 0
1511 31 1 0 31.3255336405041 47.50320691718412 -5.449661194139574 0 0 1
1512 31 1 0 30.504766905515076 46.84237220263393 -4.89494416874752 0 0 1
2381 48 1 0 16.88925474553407 49.69877492818599 -5.0893453737983725 0 -1 1
2380 48 1 0 17.942978746480474 49.557044871206415 -4.886061405708892 0 -1 1
1510 31 1 0 32.187167559904694 48.107265947023706 -5.999534008104634 0 0 1
1509 31 1 0 32.71843709984487 48.949861385036954 -6.54184435148473 0 0 1
2981 60 1 0 43.83054951751295 49.654598252424556 -5.093494669021292 0 0 0
2980 60 1 0 44.89533797707723 49.39876138027205 -5.580741658163817 0 0 0
2979 60 1 0 45.87864402716022 49.07296039477022 -5.918159807547122 0 0 0
2977 60 1 0 47.55995637897073 47.743995453355275 -6.647357247521423 0 0 0
2978 60 1 0 46.77880337612556 48.5312041825991 -6.218620367564162 0 0 0
3447 69 1 0 1.973655184550737 50.08161043922 -5.1505132921627705 0 0 0
3448 69 1 0 2.217156989009799 50.144242323931024 -6.346378560800419 0 0 0
2382 48 1 0 15.998757398968046 49.92591073189307 -5.617930143164464 0 -1 1
2383 48 1 0 15.135831178790808 50.0117131992304 -6.32885294146226 0 -1 1
2374 48 1 0 24.57305949031465 50.64146497600224 -4.97622869634322 0 -1 1
2373 48 1 0 25.55076919185132 51.009617548530215 -5.534991774646757 0 -1 1
2372 48 1 0 26.600103364199477 51.2822900040838 -5.8803602596790645 0 -1 1
2371 48 1 0 27.613030263729346 51.441288233950345 -6.31364173108354 0 -1 1
3498 70 1 0 14.052375224358222 -6.057156033090071 -3.5958260823004893 0 1 0
3497 70 1 0 12.97130960913466 -6.420015305888279 -3.700571406422585 0 1 0
3499 70 1 0 15.089435187505439 -5.682807499624832 -3.451149965643279 0 1 0
3500 70 1 0 15.92157878321601 -4.9704221235666814 -3.486752404259322 0 1 0
1035 21 1 0 36.84087810942185 -4.887076387800958 -3.281577593370386 0 0 0
953 20 1 0 -3.287378724110005 -2.823567053553427 -4.728739689775876 0 0 0
1036 21 1 0 37.34892803392349 -4.681015316777238 -4.199421682559133 0 0 0
1202 25 1 0 44.644163913669196 -4.77952088643288 -3.2332038263159046 0 0 0
1201 25 1 0 44.980102985927125 -4.242228031034568 -4.033468243562173 0 0 0
954 20 1 0 -3.134331133646728 -1.7283153154524704 -4.74502914989346 0 0 0
955 20 1 0 -2.867543410359534 -0.6878793391388515 -4.534531211931992 0 0 0
189 4 1 0 26.451794367845853 -2.382193452583265 -3.7906802841507337 0 0 0
190 4 1 0 26.436012602686475 -2.0774609058406868 -2.7135318745347066 0 0 0
956 20 1 0 -3.082500109354763 0.47190383002427505 -4.53364484640207 0 0 0
1055 22 1 0 38.16141224386093 -0.18314264745524386 -4.396170991567318 0 0 0
1054 22 1 0 38.915502920572536 0.300137590058955 -3.689711252454865 0 0 0
1053 22 1 0 39.55035306345971 1.0156419909905496 -3.0081461717086793 0 0 0
4488 90 1 0 49.455267426601 1.6630964257685967 -2.6153129684857497 -1 0 0
2058 42 1 0 14.89951031831469 3.8730478764925222 -2.83385484789419 0 0 1
4489 90 1 0 49.53604257251709 2.747577354562652 -2.6002564741372014 -1 0 0
3804 77 1 0 1.7067508221171337 6.094894887937261 -3.052421868337419 0 0 0
2060 42 1 0 14.282257784056096 5.6339941627453225 -4.196765922357043 0 0 1
2059 42 1 0 14.600205309236218 4.692179810077129 -3.446784217446087 0 0 1
179 4 1 0 23.03332577040476 4.59067580060088 -4.58620210526142 0 0 0
177 4 1 0 21.582124804975557 5.283541142190787 -2.8966904330939816 0 0 0
178 4 1 0 22.242458596225557 5.051806808931003 -3.8121532634856696 0 0 0
2290 46 1 0 38.73616606787357 6.049851629939187 -4.460688616123472 0 0 1
4491 90 1 0 49.83145001020089 4.912179271981926 -2.8319597614504723 -1 0 0
4492 90 1 0 50.11235754190853 5.9009632447152365 -3.2348550551174657 -1 0 0
3803 77 1 0 2.0524781514179455 6.712185871720315 -3.918818762802036 0 0 0
949 19 1 0 6.608965893859598 7.9614792394226725 -3.0822708573184956 0 0 0
3961 80 1 0 24.695339130052208 8.01551680893338 -2.967481155564224 0 0 0
3960 80 1 0 25.803781888741646 7.811209356298805 -2.8504829162386383 0 0 0
3959 80 1 0 27.023253131515922 7.676634456505017 -2.6952813427666955 0 0 0
2291 46 1 0 38.579931845907815 6.9014893580924515 -3.623724166711627 0 0 1
2292 46 1 0 38.804270858190534 7.717711198969827 -2.8515964311067457 0 0 1
642 13 1 0 43.29409704277197 6.608236938523484 -2.630223051195528 0 0 0
643 13 1 0 43.696761988169676 6.906390397776277 -3.6420446559579025 0 0 0
644 13 1 0 44.035115569580434 7.409684005804715 -4.561867966381933 0 0 0
4494 90 1 0 49.70070335723637 7.963636567610382 -4.03490165727102 -1 0 0
4493 90 1 0 49.929902913928004 6.929490342721046 -3.6737889955324943 -1 0 0
950 19 1 0 6.215157696507852 8.607381378231644 -3.7602443368707807 0 0 0
161 4 1 0 10.359053922429366 9.515466947514136 -4.4628743420605845 0 0 0
162 4 1 0 10.730618422434187 9.512004536338564 -3.3780501830247145 0 0 0
3965 80 1 0 21.03719011416262 10.401480039591501 -3.0161914849827545 0 0 0
3963 80 1 0 22.79179428312789 9.180341344508413 -3.4687833470097886 0 0 0
3964 80 1 0 21.787434272047395 9.769191258893143 -3.440436144614468 0 0 0
3962 80 1 0 23.698124500410792 8.498995543893633 -3.2890350056820608 0 0 0
4496 90 1 0 48.940162944555595 9.85687263638118 -4.59112895026128 -1 0 0
4495 90 1 0 49.51324359226078 8.99505680438878 -4.293496645557247 -1 0 0
1077 22 1 0 33.413843553406565 12.899754233318939 -4.674293348399547 0 0 0
1078 22 1 0 34.33721175045194 13.23495809121988 -3.9825053179472474 0 0 0
1079 22 1 0 35.136323151303856 13.41669845853648 -3.2118240743130273 0 0 0
4500 90 1 0 46.92754509446964 13.66295294013678 -4.552590062112305 -1 0 0
989 20 1 0 13.625174321518529 16.66855508314021 -4.324181735171325 0 0 0
990 20 1 0 14.609120927813478 16.643887633459354 -3.95830185868027 0 0 0
991 20 1 0 15.729349382555945 16.58957678455968 -3.5804736784956366 0 0 0
992 20 1 0 16.753396960522554 16.443437549539116 -3.207001784579321 0 0 0
993 20 1 0 17.724954697595162 16.479954424165836 -2.789807448010739 0 0 0
4514 91 1 0 -2.807468357162958 19.185897792583777 -2.932932299719822 0 0 0
4513 91 1 0 -2.08847577046425 18.427769931701363 -3.5478681500708156 0 0 0
4512 91 1 0 -1.6313301509459608 17.70982200541959 -4.336884160508828 0 0 0
677 14 1 0 47.27214026021667 18.27897465980797 -4.0320348742523935 0 0 0
676 14 1 0 48.0504461379731 17.932661870383352 -3.2183331027298943 0 0 0
704 15 1 0 25.169496027119372 20.997856459385073 -4.414428429948846 0 0 0
705 15 1 0 25.555111425286853 21.339105230262902 -3.37995115036819 0 0 0
687 14 1 0 37.49735925982781 21.217360740648445 -4.373289746257266 0 0 0
756 16 1 0 8.859077421012794 22.891680426046243 -4.772480887971154 0 0 0
757 16 1 0 9.658234356363966 23.40035154877615 -4.035813174110239 0 0 0
758 16 1 0 10.72898667014026 23.60776737202759 -3.4160589495993854 0 0 0
690 14 1 0 34.572410336858546 21.839110732608102 -2.823501020112044 0 0 0
691 14 1 0 33.48736215419685 21.8333334734353 -2.6724318293446867 0 0 0
688 14 1 0 36.64947466336943 21.55829114299063 -3.737579819104832 0 0 0
689 14 1 0 35.60678356222086 21.754406272029765 -3.315723847294278 0 0 0
4284 86 1 0 51.477800008221784 23.169538343676052 -4.394343771722881 -1 0 1
4282 86 1 0 -6.877817588028821 24.99603239105126 -3.379286925462575 0 0 1
3587 72 1 0 0.4201938692459215 25.71241498813835 -4.748218891575373 0 0 0
3585 72 1 0 0.08529301446219928 24.75808446988402 -2.6693368042676258 0 0 0
3586 72 1 0 0.2801469858741477 25.233935360611348 -3.693899005474583 0 0 0
759 16 1 0 11.666518632172316 23.989989569800866 -3.1111002540000197 0 0 0
740 15 1 0 22.296390518190243 24.3745621031049 -3.1738851921229765 0 0 0
741 15 1 0 23.009254111174897 25.063664185358455 -3.7026624663066445 0 0 0
5000 100 1 0 30.217414220411705 25.276993797176253 -2.9008163093393913 0 0 0
4999 100 1 0 31.25873414367612 25.465307120734114 -2.890746942118217 0 0 0
4998 100 1 0 32.28234519966226 25.70659706748608 -2.705126260166245 0 0 0
4283 86 1 0 51.69369121155171 24.015447099414914 -3.6692835996382334 -1 0 1
4281 86 1 0 -6.493475407386793 26.069564281883427 -3.343413937348233 0 0 1
4280 86 1 0 -6.105023177297551 27.128502743170948 -3.319752986882975 0 0 1
742 15 1 0 23.731132642864953 26.00027236896149 -3.806561980201342 0 0 0
744 15 1 0 24.89472391375971 27.86172616861196 -4.335025592274479 0 0 0
743 15 1 0 24.249278555077044 26.94569357794518 -4.095706187786263 0 0 0
4279 86 1 0 -5.574123406307224 28.05708627610597 -3.281811439043473 0 0 1
4278 86 1 0 -4.686287222176215 28.888927338391586 -3.392629357174798 0 0 1
4277 86 1 0 -3.7792504349712877 29.515917631894695 -3.6633294213683603 0 0 1
4276 86 1 0 -2.854808193902095 29.955100333466437 -4.2775719482132315 0 0 1
745 15 1 0 25.49452379769317 28.679064316183137 -4.394574113401776 0 0 0
746 15 1 0 26.320101515770492 29.44797418981838 -4.668685053326084 0 0 0
4003 81 1 0 7.853311127171432 32.19701138023411 -4.740192012853822 0 0 0
4004 81 1 0 6.890854090175524 32.36702503116796 -4.143751667251209 0 0 0
747 15 1 0 26.705449877821128 30.518294569119295 -4.476719210017961 0 0 0
748 15 1 0 26.802546447606893 31.584384285427795 -4.079238512530935 0 0 0
4007 81 1 0 3.793664974581753 33.121729739368945 -2.8811976850892296 0 0 0
4005 81 1 0 5.902724910543949 32.55087233334498 -3.634843688113261 0 0 0
4006 81 1 0 4.839941020271307 32.76551465258178 -3.1306109469948167 0 0 0
749 15 1 0 27.252177441229655 32.65474234471127 -3.6719738771055788 0 0 0
750 15 1 0 27.523002689671973 33.484372720548784 -3.199966410597096 0 0 0
2549 51 1 0 34.83998487369769 34.568711894722654 -4.65934421646114 0 0 1
4934 99 1 0 42.692464482927974 32.66189376059455 -4.687193972336751 0 0 0
4933 99 1 0 42.509676420688855 33.584323598793766 -4.035631544423346 0 0 0
4932 99 1 0 42.20471551453944 34.43704470010557 -3.3042976451535937 0 0 0
2960 60 1 0 50.460471672543285 34.30786595757264 -3.5579006627249594 0 0 0
3604 73 1 0 -2.3444481343440824 36.749252338985684 -2.6352666501883384 0 0 0
2550 51 1 0 35.62989736911389 35.042058370882046 -4.1311792424698135 0 0 1
4930 99 1 0 40.554757659657746 35.998392798201095 -2.9084418171006265 0 0 0
4931 99 1 0 41.38334082825715 35.261631135294174 -3.0388771410416795 0 0 0
2961 60 1 0 50.580532739439015 34.8905608944836 -4.547093661408286 0 0 0
3606 73 1 0 -2.215402158837848 38.69098383902586 -3.784453012703419 0 0 0
3605 73 1 0 -2.2576140898949255 37.623753384768996 -3.276690171546878 0 0 0
3482 70 1 0 5.320204366467905 38.87072083225151 -4.721276425404468 0 0 0
3481 70 1 0 5.356594664588427 38.01704039340366 -4.193935238542461 0 0 0
3480 70 1 0 5.301645489316704 37.06926371311016 -3.4714294354107498 0 0 0
3607 73 1 0 -2.36160137026032 39.82525151247268 -3.8147169535584835 0 0 0
3608 73 1 0 -2.4423928754010307 40.90645597571588 -3.406566167912324 0 0 0
1518 31 1 0 29.368895807496813 41.069706784392324 -4.5771607738822615 0 0 1
2851 58 1 0 38.0744738752827 40.95257963369607 -4.561924640027607 0 0 1
3609 73 1 0 -2.8861187414988727 41.92483895611195 -3.2494582635512295 0 0 0
3610 73 1 0 -3.204643756889622 42.99862133710787 -2.863719199075334 0 0 0
1517 31 1 0 28.998830383505307 42.0428401714917 -4.367637074812329 0 0 1
1516 31 1 0 28.751541184993524 43.119020162678304 -4.389939026631963 0 0 1
3250 65 1 0 43.276089016696226 43.156635894247344 -3.529460589972744 0 0 0
3249 65 1 0 42.83239110885474 42.59205159266548 -2.8805977634766586 0 0 0
3390 68 1 0 21.013803076678126 45.02704453538807 -4.732539828912745 0 0 0
3389 68 1 0 21.960215900096813 45.499214358350734 -4.376706750571289 0 0 0
1515 31 1 0 28.982887235601847 44.332638502173495 -4.119055170943561 0 0 1
1514 31 1 0 29.284320519681344 45.3706683248506 -4.162871532493427 0 0 1
3490 70 1 0 7.279494538834569 47.42929021740249 -4.661909478293676 0 0 0
3388 68 1 0 22.833101961055455 46.06040033700995 -3.9754370639911047 0 0 0
3387 68 1 0 23.757818763809325 46.462471870905134 -3.5421501431971434 0 0 0
3386 68 1 0 24.769417217339225 46.78617654686735 -2.9608790204392528 0 0 0
1513 31 1 0 29.71557868021822 46.190474000007946 -4.481633839491266 0 0 1
3445 69 1 0 1.8533973202092158 48.98921426687921 -3.3108299438243236 0 0 0
3446 69 1 0 1.988920715743931 49.588242805501274 -4.1090406600691 0 0 0
3491 70 1 0 8.047743405878204 48.305838833784534 -4.656165133268177 0 0 0
3492 70 1 0 8.62723746320846 49.15246029335262 -4.420729977443452 0 0 0
3493 70 1 0 9.593940616870135 49.87640931707787 -4.247499150737021 0 0 0
2379 48 1 0 19.028260290447193 49.66152842887711 -4.698774706317169 0 -1 1
2378 48 1 0 20.174038003696886 49.75369287287308 -4.539277231496472 0 -1 1
2982 60 1 0 42.77278834850148 49.72770727959218 -4.596273238358454 0 0 0
3494 70 1 0 10.493393729721124 50.43430768754401 -4.078992173948714 0 0 0
3495 70 1 0 11.39234087823839 51.174916255131386 -3.8721132428825262 0 0 0
3496 70 1 0 12.064123535629628 52.07011649250397 -3.7992735897512504 0 0 0
2377 48 1 0 21.274678392807864 50.095585621642805 -4.460064935855154 0 -1 1
2376 48 1 0 22.42817357471922 50.33038550268868 -4.499488856423445 0 -1 1
2375 48 1 0 23.491951246708133 50.55792301271884 -4.60304002697422 0 -1 1
2984 60 1 0 40.92678393627001 50.612663084172155 -3.7911703640947874 0 0 0
2985 60 1 0 40.192253890311264 50.985690260836215 -3.0286190823543357 0 0 0
2983 60 1 0 41.873059424776 50.09453409758188 -4.140003787931118 0 0 0
1033 21 1 0 35.82798472671586 -5.2552279582056585 -1.2211381025449135 0 0 0
1034 21 1 0 36.34378954988832 -5.103730103939892 -2.3143352064845555 0 0 0
1203 25 1 0 44.3384393597466 -5.396959428560184 -2.307091268442446 0 0 0
1204 25 1 0 44.46656994998513 -5.955384440090009 -1.2134975385782854 0 0 0
191 4 1 0 26.23984658803016 -1.5501159543813576 -1.7570514126252534 0 0 0
192 4 1 0 26.28166545285601 -0.9611987486891228 -0.7148869067220519 0 0 0
4486 90 1 0 49.59903420414652 -0.5999710431304667 -2.2483290830200886 -1 0 0
4485 90 1 0 50.03940653683041 -1.4834754737228275 -1.82727888023132 -1 0 0
4484 90 1 0 50.87560221021387 -1.9100811271271458 -1.1888731493441114 -1 0 0
4483 90 1 0 51.77307983402476 -2.4662461513564984 -0.5603899525455633 -1 0 0
1052 22 1 0 40.10540566036302 1.3288729812768039 -2.0421751417530674 0 0 0
4487 90 1 0 49.3113773653209 0.5480551619138605 -2.5877607714075195 -1 0 0
944 19 1 0 7.70318831814299 3.090477086202627 -0.6792194262165941 0 0 0
2057 42 1 0 15.41263451999332 3.1109131470461557 -2.219709438347668 0 0 1
2056 42 1 0 15.74936196103693 2.3890995943866775 -1.4335803981908108 0 0 1
2055 42 1 0 16.18227723425949 1.9284000369604908 -0.5640506836744608 0 0 1
201 5 1 0 26.966354431210238 3.6004361300171404 -0.8319877736687437 0 0 0
1051 22 1 0 40.73760261661562 1.898740504386417 -1.3790334539620255 0 0 0
4490 90 1 0 49.582451662518665 3.812949422063998 -2.5859264345390582 -1 0 0
3806 77 1 0 1.18827230440527 5.496514326512555 -0.8279112810587337 0 0 0
3805 77 1 0 1.498293736050582 5.776300438395307 -1.9900981552521138 0 0 0
945 19 1 0 7.328571669134197 4.086874354373462 -0.8524840082675539 0 0 0
946 19 1 0 7.139598168793858 5.1693763208245525 -1.132076545488585 0 0 0
176 4 1 0 20.820991502779876 5.6615383518831095 -2.2107328821117127 0 0 0
175 4 1 0 20.096581699169228 6.069030103626889 -1.574538860892843 0 0 0
640 13 1 0 42.81142250000137 5.739518976489658 -0.44606176038942186 0 0 0
641 13 1 0 43.05713125685828 6.099274148903684 -1.6068599688274978 0 0 0
947 19 1 0 6.982908966868173 6.208934556367957 -1.6713328276125807 0 0 0
948 19 1 0 6.756691587429477 7.080669317497626 -2.4360260037703485 0 0 0
174 4 1 0 19.183812279224874 6.359824531742288 -0.8800352407457178 0 0 0
3958 80 1 0 28.087003416492088 8.084808550469834 -2.4789653430160534 0 0 0
3957 80 1 0 29.17472660494011 8.223375071571452 -2.2772391909466645 0 0 0
3956 80 1 0 30.223936252444446 8.016359693266683 -2.0845896402859325 0 0 0
3955 80 1 0 31.378316681427908 8.198047132446192 -1.9590501402737068 0 0 0
3954 80 1 0 32.47623857741554 8.221424010668589 -1.8394278285761088 0 0 0
163 4 1 0 11.06360969765556 9.599729286532467 -2.3038002902345607 0 0 0
164 4 1 0 11.355167557260831 9.761973836189393 -1.2045227996759313 0 0 0
3953 80 1 0 33.542749609775655 8.554421979143537 -1.7074467574356875 0 0 0
3952 80 1 0 34.517534056509135 8.87533137143825 -1.2842209849080315 0 0 0
3951 80 1 0 35.338394295990696 9.285088930783301 -0.9319931592891122 0 0 0
2293 46 1 0 39.20199440966564 8.35304765611785 -2.0355639384978703 0 0 1
2294 46 1 0 39.526765086003934 8.6754303246945 -1.0185639267452349 0 0 1
149 3 1 0 2.314338462150886 12.319731639678828 -1.8251098873327638 0 0 0
148 3 1 0 3.155449824389781 11.881471951881673 -1.307267627379692 0 0 0
147 3 1 0 4.0260833708277675 11.39436330279569 -0.5596167510668846 0 0 0
3969 80 1 0 17.599514618581466 12.327339323628053 -0.7347398916542112 0 0 0
3968 80 1 0 18.67186827438004 12.104785908140997 -1.1116363846650137 0 0 0
3966 80 1 0 20.236461373038562 11.100331184953816 -2.4406048028837963 0 0 0
3967 80 1 0 19.549706346413913 11.708313008246472 -1.7576340480258044 0 0 0
150 3 1 0 1.6529351882394996 12.882954670404532 -2.3192377646272577 0 0 0
3974 80 1 0 12.499496487843972 14.066615209908019 -0.4496501205280146 0 0 0
3972 80 1 0 14.577624241086982 13.468111803925435 -0.6727151931474525 0 0 0
3973 80 1 0 13.505134743743788 13.775340216996108 -0.6801610628399645 0 0 0
3970 80 1 0 16.692910673519037 12.765519153798275 -0.601899556817554 0 0 0
3971 80 1 0 15.614923583416306 13.198504284601638 -0.5500298939320579 0 0 0
1080 22 1 0 35.906731010459175 13.386384223918167 -2.424248001648384 0 0 0
1081 22 1 0 36.60432166625558 13.372057167822197 -1.5703063494582463 0 0 0
1082 22 1 0 37.36835368538968 13.4818537450786 -0.7219457148803341 0 0 0
671 14 1 0 49.31561241019921 13.362916997309213 -0.7263410398084028 0 0 0
672 14 1 0 49.36080307298895 14.450557196860123 -1.0579335276428212 0 0 0
994 20 1 0 18.737719568769272 16.73559280685836 -2.373540982771785 0 0 0
995 20 1 0 19.789669446228192 16.89981789887408 -1.9399689455923217 0 0 0
700 14 1 0 25.816642146252782 16.194375692228757 -0.985130573385555 0 0 0
699 14 1 0 26.333607612182615 17.05836376344241 -1.0751926776261944 0 0 0
674 14 1 0 49.11081057057671 16.650210583296168 -1.9152407121811665 0 0 0
673 14 1 0 49.32488001981773 15.631573411862568 -1.2858722358477852 0 0 0
996 20 1 0 20.679470663820315 17.468341834860777 -1.438552384821802 0 0 0
997 20 1 0 21.4608098791017 18.17122773513713 -1.0440925124203322 0 0 0
698 14 1 0 27.064434015354347 17.816238141075317 -1.2093164335980497 0 0 0
697 14 1 0 27.716252473092155 18.698038497432453 -1.4200371682190507 0 0 0
4961 100 1 0 35.34491793094151 17.82730764965897 -0.7196155350713016 0 0 0
4962 100 1 0 36.4515420237076 17.573249086980518 -0.847305089626931 0 0 0
4963 100 1 0 37.646833828530525 17.417963786035845 -1.0645927763510086 0 0 0
4964 100 1 0 38.77381116065959 17.543159539523387 -0.8047252060570321 0 0 0
4965 100 1 0 39.84459032374981 17.73799420097688 -0.6012395225238019 0 0 0
675 14 1 0 48.661906338695886 17.439865292658776 -2.5142620652971455 0 0 0
4515 91 1 0 -3.150720526993868 19.940681977900702 -2.1610220907552993 0 0 0
4516 91 1 0 -3.6140581272009427 20.572034112502816 -1.41226781078843 0 0 0
4517 91 1 0 -4.19045016396889 20.886715609229736 -0.6113659638468049 0 0 0
696 14 1 0 28.4905438088052 19.345169786631942 -1.7015758705692279 0 0 0
695 14 1 0 29.511722723510623 19.98121875015375 -1.9094631989875084 0 0 0
694 14 1 0 30.433058272042405 20.69529907698762 -2.041998625841676 0 0 0
693 14 1 0 31.364008527675182 21.42035463647759 -2.1532822394217406 0 0 0
737 15 1 0 20.244494642153846 22.71099513967502 -1.2188168951484457 0 0 0
738 15 1 0 20.850734544708775 23.36994084845456 -2.0401442378395624 0 0 0
706 15 1 0 25.545783274491054 21.870148911931476 -2.4529865544488234 0 0 0
707 15 1 0 25.482957912027455 22.330174265918505 -1.3735045258256338 0 0 0
692 14 1 0 32.35238829246883 21.867836540370895 -2.3774323126832146 0 0 0
3583 72 1 0 -0.060980029445065004 24.39964898098567 -0.4798945405487687 0 0 0
3584 72 1 0 0.09361306429550907 24.54703527717181 -1.5655941398877855 0 0 0
3987 80 1 0 5.714429209892155 25.040398991770346 -0.5877222136886894 0 0 0
3986 80 1 0 5.609829617687557 23.932643490517155 -0.428825636562736 0 0 0
760 16 1 0 12.49733271582712 24.49091854433767 -2.3727117413513947 0 0 0
761 16 1 0 13.346764613885846 25.00362043567212 -1.776834947735925 0 0 0
762 16 1 0 14.06627808579998 25.483147140923503 -1.1202872023762411 0 0 0
739 15 1 0 21.58339247503981 23.964303160177025 -2.52826895144236 0 0 0
3988 80 1 0 6.008742190682609 25.895952401630264 -1.0516403516490997 0 0 0
3989 80 1 0 6.36111985631561 26.958639502027143 -1.4154355656030926 0 0 0
3990 80 1 0 7.05504564417857 27.92579714484016 -1.5138567594524626 0 0 0
763 16 1 0 14.831939407505779 26.020720915909823 -0.6398726029642311 0 0 0
4997 100 1 0 33.20854687555093 25.968381128490122 -2.232178856165357 0 0 0
4996 100 1 0 34.22225267112497 26.103826050771673 -2.186311790500526 0 0 0
4995 100 1 0 35.332344425261745 26.4078495300046 -1.8908289169175998 0 0 0
4994 100 1 0 36.291807925768275 26.817626812161834 -1.630616339364964 0 0 0
4993 100 1 0 37.29260729517966 26.950128113589166 -1.1561243362818059 0 0 0
4992 100 1 0 38.397955635123466 26.85204266765048 -0.6487235338137558 0 0 0
3215 65 1 0 44.917744232308735 27.206475507847564 -1.8932867455325337 0 0 0
3214 65 1 0 43.997331533597404 27.88157137076631 -1.9746760260830136 0 0 0
3216 65 1 0 45.76461554061668 26.67640602359138 -1.383290655268955 0 0 0
3217 65 1 0 46.7306772304794 26.400324751542744 -0.9549990109861185 0 0 0
3218 65 1 0 47.667984125122445 26.08320450636744 -0.5688221032859062 0 0 0
3991 80 1 0 7.648432516282959 28.98234520939214 -1.2467219401202927 0 0 0
3992 80 1 0 8.56419185085796 29.702263895499804 -1.148039757719952 0 0 0
3993 80 1 0 9.589458455182704 30.044347644793657 -0.8757574231576183 0 0 0
3525 71 1 0 22.012557966834006 30.011704578426944 -1.0332931889642976 0 0 0
3526 71 1 0 22.83658461728057 29.255764064328833 -0.4949044696334731 0 0 0
3211 65 1 0 41.10794746279578 29.87825077674307 -1.6881887225180616 0 0 0
3213 65 1 0 43.02855613988825 28.533011332009462 -1.7946996652979281 0 0 0
3212 65 1 0 42.12534042011297 29.214085098164823 -1.642366455994132 0 0 0
3994 80 1 0 10.524655254557715 30.515679860768415 -0.7227580664632961 0 0 0
3995 80 1 0 11.568642857804335 30.864196363348984 -0.7265750102673594 0 0 0
3996 80 1 0 12.504479045276621 31.37609640028395 -1.0112131528306652 0 0 0
3997 80 1 0 13.570706850604951 31.76321712803219 -1.4772798040222297 0 0 0
3998 80 1 0 14.669566352394543 31.975870692846595 -1.6530785324788029 0 0 0
3999 80 1 0 15.857770891172935 32.17796594737702 -1.474604978614436 0 0 0
3523 71 1 0 20.863934509617515 31.845371043248097 -1.1773178164361933 0 0 0
3524 71 1 0 21.350561403345484 30.746956319334814 -1.1731853799438274 0 0 0
3206 65 1 0 36.03283973981851 31.97756701922408 -1.3430182424481367 0 0 0
3205 65 1 0 34.884011406685204 32.03461028529963 -1.0523456574330823 0 0 0
3208 65 1 0 38.075851267673315 31.503405005393375 -2.2645668119683604 0 0 0
3207 65 1 0 37.037565152241484 31.714495395889692 -1.8586022136747566 0 0 0
3209 65 1 0 39.15328043418678 31.049946298532735 -2.1481438791959153 0 0 0
3210 65 1 0 40.06165424084536 30.457389631283814 -1.8387755878229757 0 0 0
3601 73 1 0 -2.9964586437315406 34.081773431987706 -1.1450716757395993 0 0 0
4008 81 1 0 2.9863830142067935 33.671741826418476 -2.316203014718212 0 0 0
4009 81 1 0 2.324909300605826 34.18695715403454 -1.5599973739233686 0 0 0
4000 80 1 0 16.779458158857746 32.51287816331082 -1.1570580040751262 0 0 0
3522 71 1 0 20.64586236706684 33.00035704059887 -1.253559466539936 0 0 0
3521 71 1 0 20.724943684145288 34.1373176871543 -1.1472826509378538 0 0 0
3204 65 1 0 33.91260060803342 32.40089750676907 -0.6186215047987916 0 0 0
2958 60 1 0 49.51982341787494 33.88479610204799 -1.504596289827453 0 0 0
2957 60 1 0 48.79629301377437 33.6605349465787 -0.6112130460729689 0 0 0
2959 60 1 0 50.04845098511979 34.159705266850665 -2.4326113494444845 0 0 0
3603 73 1 0 -2.2014869454201453 35.73911662686963 -2.042041694693373 0 0 0
3602 73 1 0 -2.572529436480194 34.8007062128606 -1.681208846688648 0 0 0
4010 81 1 0 1.9330084922959374 34.826007619267656 -0.7438420980578178 0 0 0
3479 70 1 0 5.68128064955964 36.46670095814615 -2.5943258461612313 0 0 0
3478 70 1 0 5.860940493022968 36.15646084342432 -1.5106572193653605 0 0 0
3477 70 1 0 6.21891731115765 35.91451900668665 -0.5395595017259764 0 0 0
3520 71 1 0 20.80478838533425 35.302384650710096 -1.185582787263783 0 0 0
3519 71 1 0 20.54119228531716 36.40993825362902 -1.099829464133284 0 0 0
4929 99 1 0 39.479121380967385 36.51059180615322 -2.571375070489102 0 0 0
3518 71 1 0 20.386414324453416 37.6071619844398 -1.115034717631254 0 0 0
3517 71 1 0 20.365751896052995 38.70290102402137 -0.9261205699774845 0 0 0
4926 99 1 0 36.735601778871356 38.43709952294993 -2.0948488438318478 0 0 0
4925 99 1 0 35.744813141194065 38.81169575015103 -1.9243992408885056 0 0 0
4928 99 1 0 38.55562382647342 37.13779754387351 -2.3521748028504956 0 0 0
4927 99 1 0 37.67596675212053 37.76518772954585 -2.0768104088184507 0 0 0
3516 71 1 0 20.474610222514503 39.81030613042489 -0.9207083823937608 0 0 0
3515 71 1 0 20.656755441453218 40.9476531892026 -0.722875861571352 0 0 0
4921 99 1 0 31.80743234143488 40.81402125139919 -0.7902176357405496 0 0 0
4922 99 1 0 32.620935665116534 40.27099901110418 -1.2498974022766371 0 0 0
4923 99 1 0 33.62178091769216 39.837858310824544 -1.5260536742958082 0 0 0
4924 99 1 0 34.65948262108027 39.25915805532737 -1.7682620853571336 0 0 0
3246 65 1 0 41.48418620736298 40.504207891850534 -0.47665125784155843 0 0 0
3514 71 1 0 20.596455718426597 42.0929782033377 -0.6174305236553392 0 0 0
3513 71 1 0 20.565877805265412 43.1807340632695 -0.5082053287701126 0 0 0
3247 65 1 0 41.667665563367514 41.300916874202734 -1.3455512479792688 0 0 0
3248 65 1 0 42.26061089434525 41.95183790709218 -2.0638045663801337 0 0 0
3611 73 1 0 -3.176059219059179 43.878298784436225 -2.1429088296784164 0 0 0
3612 73 1 0 -2.878006043919484 44.292331078031985 -1.1552910871540825 0 0 0
3442 69 1 0 1.8680658645876094 46.814064077799465 -0.7569413700977521 0 0 0
3443 69 1 0 1.8006586127100785 47.56972437537106 -1.5647604310476833 0 0 0
3401 69 1 0 8.973560360886 47.41370032190639 -0.5131319959934971 0 0 0
3402 69 1 0 9.666343951206464 46.63214653500692 -0.418568854858716 0 0 0
3385 68 1 0 25.778126378415855 47.08859985282629 -2.486302249430934 0 0 0
3384 68 1 0 26.69245797921044 47.569182454747356 -2.0461126824404485 0 0 0
3444 69 1 0 1.8966038232883302 48.31885879979639 -2.396539651312859 0 0 0
3383 68 1 0 27.495047824856414 48.13185526694425 -1.5425253655324376 0 0 0
3382 68 1 0 28.07037902825158 48.94216476035744 -1.231347724279348 0 0 0
3381 68 1 0 28.416077884222315 49.92624626826317 -0.6351001257512221 0 0 0
2987 60 1 0 39.55868296261771 52.05325861151198 -1.1138969170527953 0 0 0
2986 60 1 0 39.84185600406086 51.567061293031024 -2.0906618712198277 0 0 0
3451 70 1 0 3.4627918043596573 -5.632744080679623 0.6371602949059834 0 1 0
3452 70 1 0 4.393817720628464 -6.130133828393823 0.7053421586419758 0 1 0
3453 70 1 0 5.215820461366455 -6.6507291295526185 1.1621820858370053 0 1 0
3503 71 1 0 22.093922487302144 -4.934115946908435 1.1403797310094015 0 1 0
3504 71 1 0 22.08114938286504 -6.125737230952829 0.859016294908798 0 1 0
3378 68 1 0 28.408867081969426 -6.498543337418886 1.4265529634904204 0 1 0
1030 21 1 0 34.22360094075458 -5.641586974545776 1.654210951768127 0 0 0
1032 21 1 0 35.3838462415735 -5.403288077845841 -0.20573761062639984 0 0 0
1031 21 1 0 34.74121085559906 -5.621714154815866 0.6525084222179045 0 0 0
2989 60 1 0 40.13378902968001 -5.4761719657277546 0.34323235998069684 0 1 0
2990 60 1 0 40.337925850862966 -4.866546755972718 1.3496542766780368 0 1 0
2988 60 1 0 39.62520457096149 -6.183911405966163 -0.4043276188486389 0 1 0
1205 25 1 0 44.89964098244728 -6.4964540399327 -0.22685117306370303 0 0 0
1206 25 1 0 44.987629485184264 -6.781551342718848 0.8262145165717022 0 0 0
4481 90 1 0 -5.535023664764816 -2.809552484810991 0.6392980921765552 0 0 0
4482 90 1 0 -6.5762278432066745 -2.732243320243153 0.10216353400476538 0 0 0
4480 90 1 0 -4.399231383457893 -2.8222547908831435 0.5684042134821362 0 0 0
4479 90 1 0 -3.3746116102026353 -2.6527533625071094 0.7542757773645787 0 0 0
937 19 1 0 11.579175967143733 -3.042532105470582 1.4505510763338798 0 0 0
3502 71 1 0 21.953231945399796 -3.8428435259556584 1.0286707974393636 0 1 0
3501 71 1 0 21.644043209410288 -2.9374026518080303 1.2617643422731968 0 1 0
4478 90 1 0 -2.224421584725901 -2.5234214079335935 0.9897807380367935 0 0 0
4477 90 1 0 -1.4060389259108435 -1.954810795971084 1.456865842770203 0 0 0
940 19 1 0 9.572680262205218 -0.8305025200434123 0.22766207705350555 0 0 0
939 19 1 0 10.08390421786251 -1.699559935049974 0.508545955081526 0 0 0
938 19 1 0 10.792682916817927 -2.459423112221168 0.8722903872628813 0 0 0
194 4 1 0 25.572051825610853 -0.5837109276396801 1.4262025199287778 0 0 0
193 4 1 0 25.943580295781377 -0.47579297576458857 0.25634026299469176 0 0 0
942 19 1 0 8.304481684890197 1.0037393933670382 -0.22667521147385028 0 0 0
941 19 1 0 8.81871880876881 0.0022994963882083186 -0.016308689956912193 0 0 0
2054 42 1 0 16.542603131173585 1.3385280796819705 0.2619198413825663 0 0 1
2053 42 1 0 16.811221768976917 0.577792293446614 1.0359448350802358 0 0 1
2052 42 1 0 16.90591805931679 -0.1834777805491431 1.7496492142414517 0 0 1
943 19 1 0 7.9274468327825955 2.0071195406644393 -0.3808187797349315 0 0 0
202 5 1 0 27.663023191680782 3.101723626436714 -0.20197752040623437 0 0 0
203 5 1 0 28.371313578586918 2.6363937446569796 0.4941301722128398 0 0 0
204 5 1 0 29.086501741255073 1.9709144561481668 1.0174455146320849 0 0 0
3808 77 1 0 -0.11092781058223737 5.4322377218868665 1.0075326472114114 0 0 0
3807 77 1 0 0.5833629669987382 5.536898476351171 0.10064762186023064 0 0 0
638 13 1 0 41.982951815302144 5.531475090410287 1.5809033232493237 0 0 0
639 13 1 0 42.70153005939021 5.523910227558239 0.6667274488312094 0 0 0
171 4 1 0 16.883124995641943 7.281327706306698 1.2687015450103971 0 0 0
173 4 1 0 18.313652478070345 6.621423423178844 -0.1835231756889326 0 0 0
172 4 1 0 17.58810132889008 7.040947402830252 0.4059824053118651 0 0 0
666 14 1 0 47.69770830322261 8.216337561876342 0.7897311515030923 0 0 0
665 14 1 0 47.98979447422711 7.154993685753357 1.21130743252917 0 0 0
664 14 1 0 48.05400226146358 6.184656974204808 1.7635761609429481 0 0 0
145 3 1 0 5.5143237669104606 10.378395272079691 0.8093683260277262 0 0 0
144 3 1 0 6.515020130210801 10.025481141980437 1.230221007358855 0 0 0
165 4 1 0 11.901153463661668 9.748382335628923 -0.2242790872568116 0 0 0
166 4 1 0 12.664123555498445 9.766232543748588 0.682098605445692 0 0 0
167 4 1 0 13.43842065774579 9.673224297716748 1.414329815477752 0 0 0
2295 46 1 0 39.74096012103237 9.10114988297242 -0.004787483496841157 0 0 1
2296 46 1 0 40.32527224565983 9.411129427420875 0.867678119946181 0 0 1
2297 46 1 0 41.12527737163252 9.553924135266065 1.7135635243698604 0 0 1
667 14 1 0 47.79698517918448 9.226125500587507 0.3472385891698121 0 0 0
668 14 1 0 48.13640731483985 10.318268187743392 0.2144348903359751 0 0 0
146 3 1 0 4.7984659922239095 11.07812746291088 0.17094795260644893 0 0 0
669 14 1 0 48.779619327300274 11.32231403930726 0.09810573467606362 0 0 0
670 14 1 0 49.13250408781559 12.349715215999813 -0.2653872597676648 0 0 0
3975 80 1 0 11.416229092763013 14.457259905970865 -0.2958038381266447 0 0 0
1003 21 1 0 28.35159737828774 13.76082741986613 1.7207017498929913 0 0 0
1002 21 1 0 29.021700651685855 14.516776388903788 1.291345865142763 0 0 0
1083 22 1 0 38.288978517774225 13.27433685367508 -0.11362442695932375 0 0 0
1084 22 1 0 39.06417357142425 13.547941482373059 0.7707457845383284 0 0 0
1085 22 1 0 39.94596444555063 13.442901673938083 1.4555055601973585 0 0 0
3979 80 1 0 7.95447273021525 16.99025036555851 1.3452946722380406 0 0 0
3976 80 1 0 10.412851042968233 14.899833332855192 0.08735418662788318 0 0 0
3977 80 1 0 9.448736821245516 15.42387290918508 0.5811456791749219 0 0 0
3978 80 1 0 8.589730597470995 16.101095029739714 0.8686177243365619 0 0 0
1001 21 1 0 29.732841685222148 15.322626241456362 1.3368208536450694 0 0 0
3981 80 1 0 6.5453844262193845 18.72276776623713 1.451712840011586 0 0 0
3980 80 1 0 7.291440710933869 17.889118915089274 1.5115748176946942 0 0 0
998 20 1 0 22.271819424464514 18.689491922480453 -0.38235560080190933 0 0 0
4957 100 1 0 31.864601267601547 18.985986300074657 1.7059558861354693 0 0 0
4960 100 1 0 34.43262393069397 17.88859661775811 -0.23953562716210777 0 0 0
4958 100 1 0 32.56583322162587 18.55301649385295 0.8356158832189803 0 0 0
4959 100 1 0 33.39268391247196 18.051938989954873 0.16640767656878544 0 0 0
4966 100 1 0 41.0074823338781 17.989243588877606 -0.36260573875047486 0 0 0
4967 100 1 0 42.05030802702641 17.88785442782447 0.04506442444451431 0 0 0
4968 100 1 0 43.003741333558786 17.723649700712485 0.6294348927742289 0 0 0
4969 100 1 0 44.049600870608465 17.384903144524763 0.7280910333539401 0 0 0
4970 100 1 0 45.20839088137453 17.35383491746083 0.8574309817251282 0 0 0
4971 100 1 0 46.25990622909891 17.26659793430991 1.0829034941725664 0 0 0
4972 100 1 0 47.24723878750578 17.580947878921418 1.4930730158327656 0 0 0
4518 91 1 0 -4.771626656609346 21.181101569891823 0.3240140418828451 0 0 0
3983 80 1 0 5.839876896288788 20.79839632977735 0.8220250201717013 0 0 0
3982 80 1 0 6.2422640906335864 19.779344061355655 1.2059355677215156 0 0 0
999 20 1 0 22.98921172290527 19.285942387820608 0.1858344148238284 0 0 0
1000 20 1 0 23.649937217612813 19.778304176900775 0.7668264239062617 0 0 0
4519 91 1 0 -5.210186110678502 21.597390887032827 1.1539015402831978 0 0 0
3984 80 1 0 5.846648823089544 21.782867129510244 0.18962736486268922 0 0 0
3985 80 1 0 5.763659220848263 22.85850621832039 -0.09124153011451508 0 0 0
735 15 1 0 19.061876776235916 21.942175123272932 0.5544191378995866 0 0 0
734 15 1 0 18.36441761215859 21.842404682450862 1.4517326879444135 0 0 0
736 15 1 0 19.749601972931156 22.20108484305928 -0.3240662618722389 0 0 0
708 15 1 0 25.31170858777027 22.78333938834926 -0.35299187681363714 0 0 0
709 15 1 0 25.06070665293685 23.33025947492852 0.6543172142470906 0 0 0
3582 72 1 0 -0.006108678849452272 24.43712023772031 0.6304437040151456 0 0 0
710 15 1 0 25.010875038543464 23.896715162203897 1.6555344319855207 0 0 0
3219 65 1 0 48.81608591299722 25.818851201998246 -0.18895852883192055 0 0 0
764 16 1 0 15.566912148948449 26.37640537741491 0.10170743429884217 0 0 0
765 16 1 0 16.281515579070792 26.557095573646112 0.8602206362680781 0 0 0
766 16 1 0 17.21667433882597 26.896768017033704 1.486631671140032 0 0 0
3531 71 1 0 28.161347908785604 27.936758566073994 0.18525699722077432 0 0 0
3532 71 1 0 29.23524422620482 27.917078004222493 0.3306103378096903 0 0 0
4991 100 1 0 39.347349283781334 26.837188649037138 0.0016090066513883379 0 0 0
4990 100 1 0 40.172646064214504 26.85690610131018 0.7042507007754825 0 0 0
4989 100 1 0 41.00109606562273 26.872190556579824 1.424295864361594 0 0 0
3220 65 1 0 49.76718473513759 26.051889066146494 0.35179415409541215 0 0 0
3221 65 1 0 50.77413372862273 26.344981325809602 0.7523952903847595 0 0 0
3222 65 1 0 51.67190436998668 26.648492630460478 1.3068503517189207 0 0 0
3527 71 1 0 23.7937149774346 28.86529877425447 -0.1351000506895091 0 0 0
3528 71 1 0 24.7480938041409 28.64682443747474 0.04972518129731629 0 0 0
3529 71 1 0 25.884553754591398 28.264314950341802 0.314804101996081 0 0 0
3530 71 1 0 27.084318475918234 28.163186249739095 0.38215792082234606 0 0 0
3533 71 1 0 30.300974181909574 28.1878046955318 0.7473790178861118 0 0 0
3534 71 1 0 31.300201854765533 28.55429907440252 1.1538574576878646 0 0 0
3535 71 1 0 32.34463220697718 28.65029633182009 1.7440674526932254 0 0 0
4401 89 1 0 -6.707989004821499 32.1141940309385 1.5471167849871525 0 0 0
4402 89 1 0 -5.70403235271902 32.09011203247886 1.747877685314063 0 0 0
2953 60 1 0 45.240223502024385 32.372431205718854 1.3853151192801536 0 0 0
2952 60 1 0 44.136194893229586 32.3457013205308 1.7566672226983286 0 0 0
3202 65 1 0 32.12102053331895 33.21424097367436 0.30763345057105024 0 0 0
3201 65 1 0 31.21940116318647 33.068371790271854 0.7387110596439554 0 0 0
3203 65 1 0 33.02125584213554 32.811430765466355 -0.3100227923355485 0 0 0
2954 60 1 0 46.30526444958307 32.5685815386986 1.1567845245342094 0 0 0
2955 60 1 0 47.27829487043085 32.821901511862954 0.7570227916535474 0 0 0
2956 60 1 0 48.13291159171606 33.15193358673582 0.09156567444330166 0 0 0
4011 81 1 0 1.291350479099966 35.409120487828154 0.011539756552382858 0 0 0
4012 81 1 0 0.5815246667415631 35.997975110500654 0.7006781188606555 0 0 0
4013 81 1 0 -0.1693701396426858 36.36445738851493 1.5068885151390607 0 0 0
3476 70 1 0 6.6675511959930445 35.45349349900976 0.4860298467059397 0 0 0
3475 70 1 0 7.17832280092604 35.36349466028368 1.4035211401770427 0 0 0
3412 69 1 0 15.35677586912839 37.61741682033777 1.4857273490190241 0 0 0
3411 69 1 0 15.221429014408638 38.69279485758177 1.3053869312040074 0 0 0
3409 69 1 0 14.716509356337559 40.803079626261656 0.8571408484035065 0 0 0
3410 69 1 0 14.988056834729433 39.80545924692723 1.1725160863615027 0 0 0
4920 99 1 0 30.840653059266266 41.010198696047794 -0.23154207820364858 0 0 0
3244 65 1 0 40.78471389095479 39.0819392231608 1.1982948816025019 0 0 0
3245 65 1 0 41.12283206345738 39.833142872642696 0.41561553253077627 0 0 0
3407 69 1 0 13.673969878127359 42.72432950207738 0.5816442764218174 0 0 0
3408 69 1 0 14.091390821480324 41.7039902201449 0.639452999215392 0 0 0
4917 99 1 0 28.74691628933171 42.69923334538922 1.6294585625191442 0 0 0
4918 99 1 0 29.468768928839637 42.18933871908808 1.0214222240630313 0 0 0
4919 99 1 0 30.02626728785194 41.58130028668303 0.3068309685981276 0 0 0
3613 73 1 0 -2.5627529872550188 44.93312256334644 -0.2207037612586742 0 0 0
3439 69 1 0 2.210407748780265 44.28962330593268 1.312964833992852 0 0 0
3440 69 1 0 2.1597596066342772 45.28061681099975 0.7784660157024883 0 0 0
3405 69 1 0 12.095175393623494 44.30571031674394 0.0321900978317759 0 0 0
3404 69 1 0 11.35340008848569 45.26697539464638 -0.10926289940874269 0 0 0
3406 69 1 0 12.93573958902796 43.464274004992504 0.38002312095664403 0 0 0
3512 71 1 0 20.821642168795172 44.19905180263612 -0.11250941926749922 0 0 0
3511 71 1 0 21.050604002717513 45.29239478586983 0.23372355896768549 0 0 0
3614 73 1 0 -2.450658401742948 45.71729781590559 0.6402071347388574 0 0 0
3615 73 1 0 -2.318387486996566 46.386973477426885 1.3634771494840814 0 0 0
3441 69 1 0 1.958051596251424 46.05048269215167 0.07532503089686125 0 0 0
3403 69 1 0 10.500242684906572 46.02358236153059 -0.21577859311882844 0 0 0
3510 71 1 0 21.37718791931189 46.38243200143698 0.35056540751851867 0 0 0
3509 71 1 0 21.653120722308973 47.47045999420439 0.5415367218430519 0 0 0
3508 71 1 0 21.540133514296695 48.472901073175876 0.9481836288488739 0 0 0
3507 71 1 0 21.697519789921063 49.566253209092906 0.9472716429174172 0 0 0
3800 76 1 0 -4.580990914202934 50.950807419629065 1.6372928822922292 0 -1 0
3454 70 1 0 6.106005029072095 52.00950755649325 1.5451298572886183 0 0 0
3506 71 1 0 21.81972008001024 50.69484694052836 0.9931483420372095 0 0 0
3505 71 1 0 22.078413066234408 51.87904364206785 0.9852396486764978 0 0 0
3379 68 1 0 28.590461679816396 51.796195682351524 0.6913118206072371 0 0 0
3380 68 1 0 28.619886417537106 50.97118329589152 -0.038969050190826984 0 0 0
3377 68 1 0 27.792445430501814 -5.751041466741782 2.181618662561101 0 1 0
3376 68 1 0 26.889646703921517 -5.465531626107703 2.8469494611403565 0 1 0
3375 68 1 0 26.010695478031256 -5.281590274167594 3.4154917455893465 0 1 0
1028 21 1 0 33.07368200075953 -5.440505877413284 3.6232681366898514 0 0 0
1029 21 1 0 33.55427888298188 -5.45814533341751 2.574709504152194 0 0 0
1207 25 1 0 45.2215803086658 -6.860605793238241 1.942768094454536 0 0 0
1208 25 1 0 45.45520405270008 -6.759935066473666 3.012538675372242 0 0 0
652 14 1 0 51.23112536845704 -6.0347544301849085 3.768699507095637 0 0 0
653 14 1 0 51.14360302445659 -5.038613130748649 3.9375214462270325 0 0 0
936 19 1 0 12.328042217341137 -3.6872780979689077 2.2216716269462897 0 0 0
935 19 1 0 13.22624965935481 -3.874569160594496 2.841076802695053 0 0 0
934 19 1 0 14.08012392753295 -3.7713534500912647 3.6097687835043577 0 0 0
2991 60 1 0 40.7141478913465 -4.228732481410099 2.2914265387153914 0 1 0
2992 60 1 0 41.0100905944013 -3.3074420693392885 2.8692074920729027 0 1 0
4476 90 1 0 -0.40764562975321483 -1.4816971203853309 1.845107387989946 0 0 0
4475 90 1 0 0.24935340732795935 -0.9153768087701367 2.510585128306766 0 0 0
2051 42 1 0 17.475965924181065 -0.8016157552389434 2.4528656694817674 0 0 1
195 4 1 0 25.03579205184094 -0.5549547571961734 2.43570193424977 0 0 0
2993 60 1 0 41.575111409846926 -2.526641851945675 3.5142248128528273 0 1 0
657 14 1 0 50.827415410762676 -0.7313334751439973 3.9328370274124107 0 0 0
4474 90 1 0 0.943033088258647 -0.20812678238952328 3.102922029451227 0 0 0
4473 90 1 0 1.5974245142796697 0.227489527015614 3.9351308147318407 0 0 0
196 4 1 0 24.52366097971068 -0.40790794114935175 3.3386465483400074 0 0 0
205 5 1 0 29.656886427811788 1.3429622567944397 1.7959057684377644 0 0 0
206 5 1 0 30.368708058959783 0.6865560970247747 2.406624592518334 0 0 0
207 5 1 0 31.025911164021025 0.07702067659882057 3.094146014605573 0 0 0
659 14 1 0 50.04458179441703 1.4268256972318918 3.7687368520328266 0 0 0
658 14 1 0 50.49923643048126 0.31324763306736436 3.7785607458973396 0 0 0
252 6 1 0 10.700971659090671 3.936502575687852 3.5155324517714313 0 0 0
661 14 1 0 48.83269605980681 3.238083092170153 3.2552349645635084 0 0 0
660 14 1 0 49.34935560057402 2.3359584173460153 3.550100073261652 0 0 0
3810 77 1 0 -0.9634491161966178 5.826338367234584 3.1329724979358073 0 0 0
3809 77 1 0 -0.42402355574872447 5.779411237622468 2.1147794027623026 0 0 0
251 6 1 0 11.486758006329598 4.164821881126762 2.8259595570686544 0 0 0
637 13 1 0 41.45248376556511 5.695579923432941 2.553233532164538 0 0 0
636 13 1 0 41.234966794379176 5.812950837264752 3.648562854735888 0 0 0
663 14 1 0 48.263949171999094 5.114343102187705 2.0715466858683325 0 0 0
662 14 1 0 48.444347861485774 4.259900965627409 2.750904007331459 0 0 0
170 4 1 0 16.286521449800528 7.862912034341031 2.0133934323132414 0 0 0
1232 25 1 0 51.74912865976528 7.961542062106359 3.808282605646914 0 0 0
143 3 1 0 7.46722546995131 9.781534976632752 1.8341210940835755 0 0 0
142 3 1 0 8.255961057993495 9.405733160476446 2.5226210206638258 0 0 0
141 3 1 0 9.120268515306998 9.170309312794334 3.2301473337103794 0 0 0
140 3 1 0 9.996272608598428 8.786257818277331 3.796845576721565 0 0 0
168 4 1 0 14.327625057327845 9.125389149944686 2.013276049060259 0 0 0
169 4 1 0 15.278210022050214 8.440513226978686 2.2427095403853117 0 0 0
2298 46 1 0 42.10367305297491 9.636144340684845 2.224157651761739 0 0 1
2299 46 1 0 43.09234505103985 9.789101426303354 2.750959235574781 0 0 1
2300 46 1 0 43.956578228916726 10.01015960403838 3.0814244178467423 0 0 1
1233 25 1 0 51.68770811134362 9.133817206279119 3.682380916401955 0 0 0
1234 25 1 0 51.52590331618363 10.143978755086282 3.807079485661167 0 0 0
1006 21 1 0 26.78385513791027 11.521228945609817 3.7647113661611797 0 0 0
1005 21 1 0 27.237172220904178 12.442260726386927 3.1314539795127785 0 0 0
1004 21 1 0 27.8781889148094 13.048870957120602 2.3911902785196184 0 0 0
1086 22 1 0 40.7799152279963 13.815104570266191 2.1110544638774256 0 0 0
1087 22 1 0 41.43301293571701 14.018672575543048 2.9106092117980706 0 0 0
1088 22 1 0 42.313001859860975 14.418066562686468 3.6104235400319715 0 0 0
3753 76 1 0 18.153017304534433 16.885048213879152 3.921546950612659 0 0 0
4423 89 1 0 11.576686793220416 19.00279804133354 3.74952982085131 0 0 0
3754 76 1 0 18.949766782441653 17.47495155543626 3.638878586853994 0 0 0
3755 76 1 0 19.83528036724008 18.18857663460942 3.7733297143421587 0 0 0
3756 76 1 0 20.706174990039592 18.93430243043774 3.8138283976774745 0 0 0
4973 100 1 0 48.32217485387184 17.558278094096256 2.0429307169264406 0 0 0
4974 100 1 0 48.89519460728689 17.98772647383826 2.9265800516321745 0 0 0
4975 100 1 0 49.52670170384267 18.560176482396965 3.6645789844825303 0 0 0
4422 89 1 0 11.418202218370906 19.979596862563447 3.24902568760114 0 0 0
4421 89 1 0 11.036915380811447 21.06855397905005 2.820028080194124 0 0 0
4955 100 1 0 30.397792392232475 19.52851282146842 3.2426943801790156 0 0 0
4956 100 1 0 31.128640955616273 19.273490864326966 2.407359952495533 0 0 0
801 17 1 0 36.49163791984758 19.350669973834897 2.981440920043755 0 0 0
802 17 1 0 36.58558488800519 20.323760342107995 3.0459982997710378 0 0 0
803 17 1 0 37.06584881690353 21.246848605248747 3.35047876889825 0 0 0
4520 91 1 0 -5.593659024838525 22.15254750113473 2.1379221930621917 0 0 0
4521 91 1 0 -5.620342911732181 22.77955028096871 3.0461731698563352 0 0 0
4419 89 1 0 9.972848459890987 23.213586174083527 2.627661654375377 0 0 0
4420 89 1 0 10.563591376811106 22.232985624972994 2.7180233400797356 0 0 0
732 15 1 0 17.724090338874415 21.778376501415803 3.645788582805766 0 0 0
733 15 1 0 18.071807511199804 21.77435367024897 2.5502390885290893 0 0 0
804 17 1 0 37.22086915704571 22.340456346436607 3.363104475470365 0 0 0
805 17 1 0 37.62127573302319 23.434038700034307 3.4547010188976386 0 0 0
3581 72 1 0 -0.17122888623249757 24.424532772421497 1.781525538546092 0 0 0
3579 72 1 0 -0.37265792975181905 23.81237565479465 3.890928225840825 0 0 0
3580 72 1 0 -0.3396900689272945 24.12845726457133 2.845098542139252 0 0 0
4418 89 1 0 9.361916822131505 24.126903568466712 2.896510206183565 0 0 0
4417 89 1 0 8.645872009159199 24.930644196478944 3.255945658241092 0 0 0
711 15 1 0 25.16079368755725 24.585371806734546 2.570273323216304 0 0 0
712 15 1 0 25.026457967661834 24.9439947809274 3.6422451174882235 0 0 0
806 17 1 0 37.79570313507941 24.46549951869451 3.3056337295557756 0 0 0
807 17 1 0 37.91111403031246 25.501743696115987 3.6442960515665273 0 0 0
3224 65 1 0 -6.7930191514051295 27.57632630986254 3.2604124944844513 1 0 0
3223 65 1 0 -6.971858062589594 26.93069904599253 2.289118944070569 1 0 0
4415 89 1 0 7.076081732842906 26.56293513398932 3.8686348506232027 0 0 0
4416 89 1 0 8.03520243607516 25.938231312495475 3.484796715836542 0 0 0
767 16 1 0 18.208302660821865 27.202668505118492 2.093239239853992 0 0 0
768 16 1 0 18.877459457935906 27.853503397443166 2.5481723353930508 0 0 0
808 17 1 0 38.36947962793039 26.52012163442891 3.9147794932033113 0 0 0
4988 100 1 0 42.00964871915349 26.963641226848637 2.129543088274043 0 0 0
4987 100 1 0 42.9914920709286 26.88957018830586 2.693440338814309 0 0 0
4986 100 1 0 44.048712639965935 26.781359942822398 3.0913258179021863 0 0 0
4985 100 1 0 45.05264073080407 26.758523571275997 3.679909751677251 0 0 0
3422 69 1 0 9.960349843573324 30.12241560212985 3.958187849630476 0 0 0
769 16 1 0 19.81393796914586 28.45599901277555 2.722927172824596 0 0 0
770 16 1 0 20.727190221274835 28.950924783262604 3.1647383760494616 0 0 0
771 16 1 0 21.75399302517698 29.326834798866194 3.4663118349232827 0 0 0
3536 71 1 0 33.20201127324163 28.868832228654437 2.2828482604044122 0 0 0
3537 71 1 0 33.78204423556153 29.08630977724534 3.2134751476171206 0 0 0
811 17 1 0 38.523707746138435 30.02933488393344 3.5676383541485155 0 0 0
810 17 1 0 38.58725240480439 28.849485320777177 3.8388856652716066 0 0 0
4403 89 1 0 -4.654305455551921 31.72228545006875 1.8445066087984552 0 0 0
4404 89 1 0 -3.578155581087531 31.483611867162995 2.2711413521584936 0 0 0
4405 89 1 0 -2.6033222785163153 31.080662224433205 2.778800252115047 0 0 0
4406 89 1 0 -1.5103959140189496 30.749749416885972 3.264830609361471 0 0 0
4407 89 1 0 -0.602845629635121 30.25439095370672 3.7929631010586498 0 0 0
3420 69 1 0 12.108649308526989 30.290810803523645 3.702104447533984 0 0 0
3421 69 1 0 11.021351666627764 30.211817311602356 3.7239733586573975 0 0 0
3418 69 1 0 13.923117239531463 31.36746076118425 3.117792248968535 0 0 0
3419 69 1 0 13.034721641211396 30.69334609162419 3.5884047957585796 0 0 0
3417 69 1 0 14.676703133807925 32.22781136466686 2.825678116045464 0 0 0
812 17 1 0 38.03306812887009 31.00957828579364 3.5540649162671802 0 0 0
813 17 1 0 37.615765329488376 32.06630668591546 3.7515340803214388 0 0 0
2951 60 1 0 43.39139463015098 32.18456097038642 2.377195665734297 0 0 0
3416 69 1 0 15.0532921533719 33.31287195723786 2.642518349722664 0 0 0
3415 69 1 0 15.287692144969066 34.473893086913954 2.3463559366268725 0 0 0
3254 66 1 0 21.560656084585766 34.02173859159029 3.5960411694202885 0 0 0
3255 66 1 0 22.72335485598709 34.215097578001966 3.1409070610008114 0 0 0
3256 66 1 0 23.838056223102978 34.28036097418232 2.928168636789077 0 0 0
3257 66 1 0 24.945784599464105 34.09232809786131 2.6784468769424024 0 0 0
3258 66 1 0 25.945613995710733 34.131328575590146 2.4477058693189813 0 0 0
3259 66 1 0 26.98783674873669 34.44955964756247 2.302701489466311 0 0 0
3190 64 1 0 -5.5074162471209425 36.451801495050944 3.449463721730949 1 0 0
4014 81 1 0 -0.7331256616289089 36.51105444178069 2.488145246634675 0 0 0
3474 70 1 0 7.776825298117938 35.38264594450527 2.2757115774420478 0 0 0
3473 70 1 0 8.56139808983084 35.77790269729724 3.092417513668461 0 0 0
3472 70 1 0 9.310564540687102 36.22709448274414 3.7121117774737242 0 0 0
3413 69 1 0 15.582027668388818 36.5862343462908 1.8681832037455146 0 0 0
3414 69 1 0 15.494713581054228 35.546199256691864 2.293487931143823 0 0 0
3260 66 1 0 28.01082374370262 35.06078070694104 2.2181693714982016 0 0 0
3261 66 1 0 28.83155657111023 35.83817488656093 2.391673174583207 0 0 0
3262 66 1 0 29.441865377561523 36.699012748021545 2.801025169044544 0 0 0
3191 64 1 0 -6.400050884390461 36.980554665708844 2.834894291235922 1 0 0
4015 81 1 0 -1.0784211872581477 36.83697623184297 3.4833002460634708 0 0 0
3263 66 1 0 30.164943947499875 37.566529758145045 3.276202931938905 0 0 0
3264 66 1 0 30.89815095606806 38.3658606157642 3.363575584957401 0 0 0
3242 65 1 0 40.36297330770851 37.64579618474063 2.9723406457298323 0 0 0
3243 65 1 0 40.3077639596474 38.4141694971403 2.0341210030724586 0 0 0
3241 65 1 0 40.78731994593106 36.85399771739963 3.7479508506722854 0 0 0
3196 64 1 0 47.57581126525211 37.85714852742641 3.6587974072796494 0 0 0
3194 64 1 0 49.47233433692159 37.55838146684343 2.6155470670607013 0 0 0
3195 64 1 0 48.56721869021054 37.794118241942016 3.1012956846941577 0 0 0
3192 64 1 0 51.64459679353736 37.15054341828593 2.543038918106295 0 0 0
3193 64 1 0 50.492105745725254 37.232715998129414 2.5745296867956764 0 0 0
3435 69 1 0 2.337121074144072 40.33858278867547 3.477296463321185 0 0 0
3265 66 1 0 31.693826077018176 39.21308595186554 3.527558405854356 0 0 0
3266 66 1 0 32.582542836851026 39.92382476368435 3.5794439244125513 0 0 0
3267 66 1 0 33.06412490604061 40.96944072721268 3.480644946487985 0 0 0
3436 69 1 0 2.112670319736088 41.404350286535646 3.0628746014589865 0 0 0
3437 69 1 0 2.2536444079026765 42.40327194702753 2.4266495246578863 0 0 0
4896 98 1 0 18.167559907578976 42.98131538645359 3.118494480303781 0 0 0
4895 98 1 0 19.109875737691393 42.33542666380889 3.321887295449868 0 0 0
4894 98 1 0 20.131571107101035 42.01554665689756 3.6736306100709624 0 0 0
4916 99 1 0 27.982510643108792 43.335135370397744 2.140532085662239 0 0 0
3268 66 1 0 33.736885744528436 41.823550763977 3.379494312636931 0 0 0
3269 66 1 0 34.51763494600838 42.70186283781512 3.3270525924091263 0 0 0
3438 69 1 0 2.2644012868263377 43.37417879581918 1.8318446454882586 0 0 0
4898 98 1 0 16.776496598033816 44.60382307142634 2.7929873240168885 0 0 0
4899 98 1 0 15.92020638074748 45.21484499283631 2.5278459429995848 0 0 0
4897 98 1 0 17.53028134414354 43.83841380019772 2.9422692689471233 0 0 0
4913 99 1 0 25.256535614473638 44.54012450674125 3.493677707411756 0 0 0
4915 99 1 0 26.931129734816505 43.85480310353427 2.4955597264125977 0 0 0
4914 99 1 0 25.985464801197452 44.34427223925658 2.8472728455945004 0 0 0
3270 66 1 0 35.1483604427526 43.67178443689952 3.6490817626614027 0 0 0
3616 73 1 0 -1.8064304118229186 46.5465000147653 2.385542598845832 0 0 0
3617 73 1 0 -1.2109752904343387 46.69498627878999 3.356091408390771 0 0 0
3460 70 1 0 10.444410459508473 47.43651695244684 3.720439793299238 0 0 0
4900 98 1 0 15.359021311413397 45.9932950921873 2.62648520674003 0 0 0
3458 70 1 0 9.346440805790916 49.302129853704685 2.9614823386949776 0 0 0
3459 70 1 0 10.12275744853923 48.456063944689454 3.25870693801635 0 0 0
3799 76 1 0 -3.8783828776058846 50.3604185673034 2.177417544803564 0 -1 0
3798 76 1 0 -3.00838318074018 50.40001517971622 2.807751311491928 0 -1 0
3797 76 1 0 -2.112316561036521 50.4257138898218 3.517085467870427 0 -1 0
3455 70 1 0 7.187563040728305 51.58097715853138 1.8855147788919928 0 0 0
3456 70 1 0 8.104099450859616 51.029531104894104 2.2974937520682213 0 0 0
3457 70 1 0 8.830804451627445 50.354763471258124 2.594744905393077 0 0 0
651 14 1 0 51.41775487325063 52.06900854576179 3.6358059036130936 0 -1 0
3791 76 1 0 3.5106498712174234 -6.824239114525016 5.927429561105811 0 0 0
3790 76 1 0 4.566795145028031 -6.217852374839075 6.057342236639783 0 0 0
3789 76 1 0 5.410876485027414 -5.486245702115968 5.94833556537982 0 0 0
3788 76 1 0 6.304418562087879 -4.950908910048616 5.701996271662669 0 0 0
3372 68 1 0 23.595089057672137 -5.448172787347215 5.5357860472561145 0 1 0
3374 68 1 0 25.131761409234983 -5.073212115207375 4.264404226298172 0 1 0
3373 68 1 0 24.298864814161295 -5.010336189457345 4.816441370712558 0 1 0
1027 21 1 0 32.34972886117807 -5.203291721128998 4.4978721015537335 0 0 0
1026 21 1 0 31.50532604968033 -5.086365056126034 5.28572051590233 0 0 0
1025 21 1 0 30.71821186068124 -4.898872519588233 6.12701972990967 0 0 0
1210 25 1 0 45.8394731346083 -6.108105072169041 5.139908402376261 0 0 0
1209 25 1 0 45.70332342437896 -6.455922474668364 4.093435460167978 0 0 0
3787 76 1 0 7.18249789047681 -4.282301538704749 5.499339353335453 0 0 0
3786 76 1 0 7.961010039465817 -3.533023866481043 5.372771562536157 0 0 0
3785 76 1 0 8.833481388861543 -2.853694587530372 5.30658859707459 0 0 0
933 19 1 0 14.975566165659961 -3.7501942581111636 4.360668823182097 0 0 0
932 19 1 0 15.998750928883517 -3.5010731478093158 4.883861513132792 0 0 0
931 19 1 0 16.86627543963371 -3.2384536487658 5.433675296057537 0 0 0
930 19 1 0 17.71536352794629 -2.893886624526669 6.009996131850273 0 0 0
654 14 1 0 51.11326224087598 -3.9676641053249218 4.118105238799137 0 0 0
655 14 1 0 51.24889903682481 -2.8976627110873965 4.275558768069338 0 0 0
3784 76 1 0 9.647785148994295 -2.08555359865078 5.230253810926484 0 0 0
3783 76 1 0 10.559705902205263 -1.379026657166147 5.373668373595776 0 0 0
3782 76 1 0 11.28530293463362 -0.5651552443931508 5.431396788412443 0 0 0
197 4 1 0 24.106933969658314 -0.4966180948024922 4.337992167388094 0 0 0
209 5 1 0 32.385861414382155 -0.8428896797982447 4.753629670846853 0 0 0
210 5 1 0 33.05062005027958 -1.1671696809149839 5.546084661006512 0 0 0
2994 60 1 0 42.37481695526782 -2.075970092659646 4.159277261961108 0 1 0
2995 60 1 0 43.40483242791878 -1.7389858623341485 4.656546996749947 0 1 0
2996 60 1 0 44.34573442616208 -1.2989970735324257 5.043077959963507 0 1 0
2997 60 1 0 45.401428182948194 -1.0704942544006868 5.487452636576847 0 1 0
2998 60 1 0 46.22875736720385 -0.8649199401501051 6.077300531420111 0 1 0
656 14 1 0 51.03844068593683 -1.8096308300557278 4.186259208898904 0 0 0
1225 25 1 0 -4.2415502739965 1.4542727576214527 6.051057926119348 1 0 0
4472 90 1 0 2.0575129581835627 0.6379483681311299 4.879756006675089 0 0 0
4471 90 1 0 2.615094760400048 0.8877588639188518 5.770237804264909 0 0 0
3781 76 1 0 12.16447379695029 0.2204894554969048 5.478662543961776 0 0 0
3780 76 1 0 12.98253193937468 0.9369946993021785 5.460417384690209 0 0 0
198 4 1 0 23.605095804384963 -0.3736332701104995 5.48339040565151 0 0 0
208 5 1 0 31.720898876320465 -0.4236073967249643 3.9701562875923075 0 0 0
1227 25 1 0 -4.752501796511032 3.295694843611464 4.613825076997784 1 0 0
1226 25 1 0 -4.411483380176541 2.351996569621081 5.231185658614866 1 0 0
253 6 1 0 9.81122370030806 3.8524543743254545 4.023538924711268 0 0 0
3779 76 1 0 13.779767375741697 1.792005510719779 5.338398280657534 0 0 0
3778 76 1 0 14.565721066243356 2.5746104563819174 5.134830117790998 0 0 0
3777 76 1 0 15.315127283075077 3.219853818455241 4.671845339428098 0 0 0
1288 26 1 0 38.52984370601039 3.467801735701741 6.0558002394002814 0 0 0
1229 25 1 0 -6.229444156061377 4.924669709027705 4.497031867207734 1 0 0
1230 25 1 0 -6.841131827010336 5.897311385489447 4.249390728609902 1 0 0
1228 25 1 0 -5.405195306235251 4.093647201419579 4.476590250270961 1 0 0
3812 77 1 0 -1.621481019783823 5.671558323854781 5.187804876332772 0 0 0
3811 77 1 0 -1.1103175717186151 5.847766053708528 4.273451665348799 0 0 0
255 6 1 0 8.006997331226739 4.033121336219982 5.600176382977929 0 0 0
254 6 1 0 8.734548525376017 3.9853243235874785 4.707096089841464 0 0 0
3776 76 1 0 16.085108824848117 4.063850381047077 4.609503650665469 0 0 0
3775 76 1 0 16.811108138225915 4.872497566618889 4.5769565311850045 0 0 0
3774 76 1 0 17.717545489052622 5.698671758393382 4.669825936165079 0 0 0
1290 26 1 0 37.62899902007447 5.471950744020438 6.145462010251225 0 0 0
1289 26 1 0 37.969166066093756 4.415461223767499 6.052601958616165 0 0 0
635 13 1 0 41.39964755915387 6.105036628733811 4.680435416622162 0 0 0
138 3 1 0 11.609112811314656 7.902115703383388 4.9724312609026855 0 0 0
137 3 1 0 12.450994877284138 7.4549389761574005 5.581607521435292 0 0 0
3773 76 1 0 18.68010376965302 6.3377667091506735 5.055041563007166 0 0 0
3772 76 1 0 19.530173166864895 6.925473811663369 5.516012205515698 0 0 0
1010 21 1 0 25.22293117114559 8.056201178379492 5.876946754146827 0 0 0
601 13 1 0 30.37723324558005 7.897976048747352 4.534739517468239 0 0 0
1293 26 1 0 35.603637289107404 8.279304999592268 6.089736480620809 0 0 0
634 13 1 0 41.43648739886413 6.522762504807229 5.800165658285931 0 0 0
1231 25 1 0 51.86411904471251 6.910415631499326 4.0813972874756015 0 0 0
139 3 1 0 10.759383812640994 8.331260031570737 4.410136782906238 0 0 0
1009 21 1 0 25.57658852493466 8.877937024745565 5.261265876942166 0 0 0
1008 21 1 0 25.996892185919773 9.672231129529534 4.603045433416487 0 0 0
603 13 1 0 30.480611494654053 9.783231497535741 5.283229375503804 0 0 0
602 13 1 0 30.535838407789402 8.718144244148169 5.015373887406388 0 0 0
1295 26 1 0 34.65455905407528 10.399392190248962 5.963196274517715 0 0 0
1294 26 1 0 35.192070004071844 9.371274579919362 6.0746254813866365 0 0 0
1007 21 1 0 26.32250046315689 10.60429457032785 4.197699508554145 0 0 0
605 13 1 0 30.081021634789792 11.775367815600584 6.133307620066946 0 0 0
604 13 1 0 30.379565702857995 10.778168276425976 5.811753174317957 0 0 0
1297 26 1 0 34.62353435552863 12.55388767950911 5.290423416395927 0 0 0
1296 26 1 0 34.76449549522726 11.404241367539433 5.589748079310691 0 0 0
1235 25 1 0 50.95870265038021 11.005175070037954 4.202845302880474 0 0 0
1236 25 1 0 50.45752211666425 11.770269159623343 4.939179694807073 0 0 0
1237 25 1 0 50.04529292490994 12.456614146902647 5.773833462636574 0 0 0
4450 89 1 0 -4.932675315349649 13.867653606687975 5.498662630406514 0 0 0
1298 26 1 0 34.28725734557926 13.708233521699503 5.288720083312609 0 0 0
1299 26 1 0 33.913858726491476 14.760502388549355 5.308718948990818 0 0 0
1089 22 1 0 43.17475039962054 14.769913411700681 4.3090750649657945 0 0 0
4426 89 1 0 12.016404269917265 16.462335310806143 5.843860252870681 0 0 0
3751 76 1 0 16.820805831181094 15.600995909222767 4.881826600911324 0 0 0
3752 76 1 0 17.330217121569582 16.244273443898 4.297744229074899 0 0 0
1300 26 1 0 34.16748157828817 15.690119311786175 5.426045416394502 0 0 0
1090 22 1 0 43.89567415473179 15.447658431236853 4.823462785588171 0 0 0
1091 22 1 0 44.49384931946641 16.367516381643963 5.347399092322191 0 0 0
1092 22 1 0 45.06081035225843 16.805653158942782 6.102904237339458 0 0 0
3886 78 1 0 1.7503181476345897 18.51189056364608 5.614667630294968 0 0 0
3887 78 1 0 2.7438385118778723 18.94903708729399 5.204481484774655 0 0 0
4425 89 1 0 12.099560326604673 17.245009954383185 5.091321508034479 0 0 0
4424 89 1 0 11.747692849642865 18.137124359893885 4.4760137173889385 0 0 0
3757 76 1 0 21.702984348049338 19.18474381388197 4.315536156994984 0 0 0
3758 76 1 0 22.697208077524447 19.215351321743153 4.936076890769716 0 0 0
3759 76 1 0 23.643169044790245 18.731706511857368 5.584995043087329 0 0 0
3888 78 1 0 3.8050641510859493 19.344268557775408 4.946961557888215 0 0 0
3889 78 1 0 4.780153843851852 19.7639098312679 5.097412585596146 0 0 0
3890 78 1 0 5.804170246041658 19.962413037256795 5.097907586737228 0 0 0
3891 78 1 0 6.83281694752051 20.346759182029338 5.445316718411616 0 0 0
3892 78 1 0 7.86529470757661 20.769691242470333 5.8005917293791756 0 0 0
3893 78 1 0 8.921949984560523 20.998907703015792 6.122207485327692 0 0 0
4951 100 1 0 27.443769224848207 20.184344799436243 6.128869544200975 0 0 0
4954 100 1 0 29.666605146920393 19.722605197488885 3.9926894362129834 0 0 0
4952 100 1 0 28.09503682408133 19.774376218776446 5.502694317014744 0 0 0
4953 100 1 0 28.85767333616868 19.821362252893273 4.7539431487507064 0 0 0
4977 100 1 0 50.19892410877032 20.496508004061145 4.575791361848585 0 0 0
4976 100 1 0 50.08701345408781 19.48563333104117 4.198768872605284 0 0 0
4522 91 1 0 -5.6246059016939345 23.344640556080797 3.9674256576428135 0 0 0
3577 72 1 0 0.2016722486098871 23.252804753242017 6.034033572941444 0 0 0
3578 72 1 0 -0.15518943756965525 23.548954081699954 4.982114729293293 0 0 0
730 15 1 0 16.803968824177645 21.69207187359987 5.677606851921411 0 0 0
731 15 1 0 17.224741792447176 21.73168963184005 4.637295270707265 0 0 0
4979 100 1 0 49.739378739246284 22.426936545931216 5.420944754994997 0 0 0
4980 100 1 0 49.112915707120266 23.472230340626435 5.484244731089641 0 0 0
4978 100 1 0 50.10296969383723 21.52750591706349 5.1375084892110126 0 0 0
4523 91 1 0 -5.451917002641974 23.970217681534596 4.893204667596767 0 0 0
4524 91 1 0 -5.070209230649438 24.464823707684033 5.7958887182835035 0 0 0
3750 75 1 0 16.502153730363272 25.625921464089878 6.138217677567219 0 0 0
714 15 1 0 24.822151395255027 25.484000145382076 5.674858351484528 0 0 0
713 15 1 0 24.827637695916778 25.36689384158687 4.567225439280443 0 0 0
4982 100 1 0 47.67799764605353 25.131838868861365 4.932991584586497 0 0 0
4981 100 1 0 48.410456642652626 24.299722230648783 5.373057034747573 0 0 0
4413 89 1 0 5.199510887790228 27.364331716355032 4.608737407929132 0 0 0
4414 89 1 0 6.12749460239779 26.948423987282833 4.246339674530003 0 0 0
4412 89 1 0 4.165054310897444 27.99542170439606 4.825441128916319 0 0 0
809 17 1 0 38.40750925300999 27.720555198762845 4.080043143265517 0 0 0
4983 100 1 0 46.928846863703235 25.96614804329563 4.611058470480356 0 0 0
4984 100 1 0 45.91509725748297 26.31338466433201 4.220725193313344 0 0 0
3225 65 1 0 -6.73837416113905 28.14586373245788 4.204254456624306 1 0 0
4408 89 1 0 0.38032452829875985 29.93083480960292 4.187998778127276 0 0 0
4409 89 1 0 1.3442024151449963 29.709024127175585 4.756789127641969 0 0 0
4410 89 1 0 2.4190814649915957 29.350595391027205 4.695863116766456 0 0 0
4411 89 1 0 3.370840355406608 28.719312417195283 4.75849402271242 0 0 0
772 16 1 0 22.72352749966624 29.602498806639915 4.0261003778392315 0 0 0
773 16 1 0 23.786764077764932 29.968261241241386 4.281647611921629 0 0 0
774 16 1 0 24.798692817396923 29.926733388442834 4.760134740454467 0 0 0
776 16 1 0 26.735489473045195 29.226228694634923 5.758055237434905 0 0 0
775 16 1 0 25.84311318179932 29.62785035895988 5.243685960766909 0 0 0
777 16 1 0 27.73924189199922 28.814672443796663 6.141847826294475 0 0 0
3538 71 1 0 33.79233652319974 29.311127880112437 4.219445941911544 0 0 0
3539 71 1 0 33.72491960405787 29.49568324738578 5.288243142040715 0 0 0
3226 65 1 0 51.93018549213388 28.900085828644578 4.909615975468964 0 0 0
3227 65 1 0 51.30384523398189 29.524391369663952 5.603083600637907 0 0 0
3426 69 1 0 5.9427908217474625 31.654210141005745 5.447204330061771 0 0 0
3425 69 1 0 6.786035530393178 30.919560140753077 5.081135271052275 0 0 0
3424 69 1 0 7.747263394403482 30.293457740709638 4.650641367853285 0 0 0
3423 69 1 0 8.820232479690457 30.27416514224353 4.4050150362212195 0 0 0
3429 69 1 0 4.005042732301856 34.380987538460005 5.61511845910826 0 0 0
3427 69 1 0 5.182659087769565 32.42614899766322 5.485968033257201 0 0 0
3428 69 1 0 4.576316805522605 33.36915564481637 5.438343740980317 0 0 0
3251 66 1 0 18.74989372137353 33.032375275880284 4.865475883076123 0 0 0
3253 66 1 0 20.55242728535569 33.6590929125523 4.095204988454142 0 0 0
3252 66 1 0 19.56448346840449 33.34629191474927 4.339875133291481 0 0 0
815 17 1 0 36.691246235340024 33.821446654174984 4.670720513240965 0 0 0
816 17 1 0 36.37770945719551 34.51756594736128 5.424106707647354 0 0 0
814 17 1 0 37.20661883053431 33.03909485449506 4.214759450099998 0 0 0
3189 64 1 0 -4.894989004418637 36.204151113927054 4.320567277551175 1 0 0
3188 64 1 0 -4.554056664078355 35.72538327696161 5.334483050803175 1 0 0
3431 69 1 0 3.255328439212595 36.4480136639298 5.432695753998289 0 0 0
3430 69 1 0 3.404591160589603 35.37100274113844 5.567831715441141 0 0 0
3471 70 1 0 10.269671472100509 36.585564670522395 4.28342451023717 0 0 0
817 17 1 0 36.076515209165336 35.497252266018094 6.095578740038376 0 0 0
3240 65 1 0 41.31913061302772 36.184477535561314 4.423936838921542 0 0 0
3239 65 1 0 41.629955396347036 35.76562094949517 5.4003986924255525 0 0 0
4016 81 1 0 -1.3128113637601884 37.55135926940577 4.362781006124683 0 0 0
4017 81 1 0 -1.4998831795052083 38.02097390673383 5.377085156605965 0 0 0
3432 69 1 0 3.178835158074893 37.48794980904623 5.006871300323008 0 0 0
3433 69 1 0 2.5968456061815934 38.39071370356457 4.684537994553701 0 0 0
3470 70 1 0 11.20040142800753 37.34181625196397 4.541232321461294 0 0 0
3469 70 1 0 12.10037000670212 38.0717115685596 4.536514655477088 0 0 0
3197 64 1 0 46.80388896377214 38.06572326131142 4.469390987212588 0 0 0
3198 64 1 0 46.129562976535446 38.03861404850464 5.511353057183845 0 0 0
3434 69 1 0 2.3834435323654954 39.40317306046622 4.090127970515153 0 0 0
3468 70 1 0 12.48955954355382 38.99065651261466 4.496538022134424 0 0 0
3467 70 1 0 12.616458671191259 40.07904569334069 4.61775901588826 0 0 0
4891 98 1 0 22.875640981993044 40.53008637472525 4.663569765633591 0 0 0
4890 98 1 0 23.351001234851715 39.91488781336776 5.367191176451961 0 0 0
3465 70 1 0 12.467392750724997 42.34102078154648 4.737577399795576 0 0 0
3466 70 1 0 12.777050847904507 41.2408755458496 4.66605801021748 0 0 0
4893 98 1 0 21.054804738801405 41.56347795042377 3.9810605407917294 0 0 0
4892 98 1 0 22.119768524729842 41.208837704761414 4.205170293916796 0 0 0
2947 59 1 0 49.89157587189009 41.203886042968776 5.781309041089464 0 0 0
2948 59 1 0 49.78941444590978 42.275012481340326 5.264184513530837 0 0 0
2949 59 1 0 49.9116261743028 43.31834680542643 4.717628924119501 0 0 0
3620 73 1 0 0.6893703610485178 45.071959752235884 5.600837458292762 0 0 0
3463 70 1 0 12.00036000994367 44.491628636110164 4.468711734656737 0 0 0
3464 70 1 0 12.146992263151047 43.4287031612585 4.655445794939057 0 0 0
3462 70 1 0 11.639918175106557 45.4167121768466 4.029943704918499 0 0 0
4910 99 1 0 22.8316639099198 45.35870376555228 5.693951794958091 0 0 0
4912 99 1 0 24.387549908118935 44.74723888000036 4.1799995582205645 0 0 0
4911 99 1 0 23.70906417742362 45.14768398922376 5.0739753362782665 0 0 0
3271 66 1 0 35.66126178763454 44.61290332089648 4.124025206045182 0 0 0
3272 66 1 0 36.2234866931137 45.39236016032765 4.750913545107536 0 0 0
2950 59 1 0 50.315617232289874 44.23788254134629 4.4071204441357645 0 0 0
3618 73 1 0 -0.4426284178787934 46.48100695382604 4.208319525621191 0 0 0
3619 73 1 0 0.12153201505959936 45.872854001604026 5.030967366368918 0 0 0
3461 70 1 0 11.143743224200687 46.482371531189045 4.1279238946356696 0 0 0
3273 66 1 0 36.706718903823116 46.044875822333324 5.391091134877889 0 0 0
3300 66 1 0 25.512376818297838 48.327396492737094 4.556381830637472 0 0 0
3299 66 1 0 25.809985319401793 49.103750987059776 5.200188119980887 0 0 0
3298 66 1 0 25.69762305738265 49.80296698825604 6.072969600068433 0 0 0
3796 76 1 0 -1.2743174534447386 50.52425286419506 4.239897994287415 0 -1 0
3795 76 1 0 -0.4060805939335401 50.72416612786275 4.87013359563064 0 -1 0
3794 76 1 0 0.4748950972787487 51.02791842230889 5.3760188486936356 0 -1 0
3793 76 1 0 1.4167703500900457 51.25893770051 5.7374908280723345 0 -1 0
3792 76 1 0 2.4878166448511707 51.782751488436105 5.958022432830161 0 -1 0
249 5 1 0 13.672416760915306 51.24471268111214 5.8979037554365075 0 -1 0
250 5 1 0 14.060281816494236 50.7883745195704 5.050108243314581 0 -1 0
3001 61 1 0 39.65923452677837 51.22024337419556 5.736295138276209 0 0 0
3002 61 1 0 40.57878871997644 50.82971002022195 5.939329261191016 0 0 0
247 5 1 0 13.48895941943216 -6.77943717067482 7.816564636695924 0 0 0
3369 68 1 0 21.124426301216715 -6.952108101583921 7.2374337295247 0 1 0
3371 68 1 0 22.841578165256976 -5.811533069370326 6.2798378844242055 0 1 0
3370 68 1 0 22.07313049619059 -6.38498907049512 6.807926948490699 0 1 0
1194 24 1 0 35.656881196088115 -6.763860288385479 7.900290489536169 0 0 0
1211 25 1 0 46.05966448662753 -5.874791686187547 6.287432301591396 0 0 0
1212 25 1 0 46.56600349004125 -5.8745973442520265 7.253473603505115 0 0 0
1213 25 1 0 47.27220570581866 -5.909680648490706 8.126816409613093 0 0 0
1024 21 1 0 30.01848119029561 -4.6647440926237955 6.903751469559453 0 0 0
1023 21 1 0 29.254968772783627 -4.013398521820597 7.344906448340784 0 0 0
1022 21 1 0 28.718520303733637 -3.299826042703612 8.059854373119325 0 0 0
929 19 1 0 18.27365187703908 -2.532728235670343 6.922601993496995 0 0 0
928 19 1 0 18.95178726410642 -2.1212898672388754 7.8285141975953065 0 0 0
211 5 1 0 33.59184723493001 -1.424369360246514 6.459260006087752 0 0 0
212 5 1 0 34.04865691481555 -1.573007676678773 7.4283502476021 0 0 0
2999 60 1 0 47.16229173135999 -0.6410833080863765 6.536885560685421 0 1 0
1224 25 1 0 -4.233731152790887 0.8573216260703987 7.0342020186767416 1 0 0
1223 25 1 0 -4.563080184114333 0.15070077563367612 7.750482775027608 1 0 0
4470 90 1 0 2.7285430127127523 1.43495727417943 6.834210198631788 0 0 0
199 4 1 0 23.10686161077456 -0.02737966989492032 6.386698831230925 0 0 0
200 4 1 0 22.557568124239147 0.3697005691074967 7.150618340596811 0 0 0
3000 60 1 0 47.97430504358113 -0.34057496435614654 7.075346686930264 0 1 0
4469 90 1 0 2.504112071898318 2.18891851107276 7.703336955284062 0 0 0
1286 26 1 0 39.892123257927274 2.254862743851067 7.2064907145287584 0 0 0
1287 26 1 0 39.08717114100582 2.8116740771028343 6.730985158668721 0 0 0
1285 26 1 0 40.87697480031654 2.1009815295450256 7.955552910558041 0 0 0
3815 77 1 0 -2.922288120943652 4.823983800947059 8.109248092195358 0 0 0
3813 77 1 0 -2.0379016136965116 5.494720135341863 6.253366287594225 0 0 0
3814 77 1 0 -2.376561292199872 5.078161127843777 7.2377698026409245 0 0 0
257 6 1 0 6.727977222189805 4.483622443667343 7.394758761089981 0 0 0
256 6 1 0 7.1354235107023145 4.348787555875005 6.307553251673921 0 0 0
135 3 1 0 13.22210159074055 6.021581795001503 7.090867920798921 0 0 0
134 3 1 0 13.658540034164927 5.639407870900858 8.094221066212306 0 0 0
1013 21 1 0 24.759381198142652 5.2437840039473365 7.8073341459331935 0 0 0
136 3 1 0 12.736952160803414 6.708305203787982 6.455096544211277 0 0 0
3771 76 1 0 20.11033916208743 7.662325353758648 6.151373260897775 0 0 0
1012 21 1 0 24.74480004064127 6.180942012852499 7.097315682956147 0 0 0
1011 21 1 0 24.859942813099366 7.1506372100429525 6.483934810194858 0 0 0
1292 26 1 0 36.223419539434694 7.454131389193235 6.2494488804352715 0 0 0
1291 26 1 0 36.96957697044375 6.505631934185542 6.190161878001564 0 0 0
633 13 1 0 41.42072200643854 7.01794431914483 6.85952382208239 0 0 0
632 13 1 0 41.30659589775133 7.570682886637718 7.855334933913011 0 0 0
3770 76 1 0 20.79331703202531 8.503766627816324 6.674510773108 0 0 0
3769 76 1 0 21.382339258061208 9.363250312852742 7.094924448041081 0 0 0
3768 76 1 0 22.127289392805324 10.270957222714976 7.292516283215195 0 0 0
4448 89 1 0 -5.085962829417767 12.52088974416441 6.955046965617405 0 0 0
4447 89 1 0 -4.713855529203914 11.682951056504272 7.624585814971987 0 0 0
4446 89 1 0 -4.468711623938492 10.845489245916582 8.160559692844691 0 0 0
3767 76 1 0 22.769675784086303 11.140297297072502 7.4661729897375135 0 0 0
3766 76 1 0 23.305482806778976 12.210590861430223 7.653818139162202 0 0 0
4449 89 1 0 -5.105940684905933 13.211587515735273 6.223681225894799 0 0 0
4430 89 1 0 10.295577748487162 13.091819121700583 8.235049100371457 0 0 0
4429 89 1 0 10.916749463819018 13.899927091184663 7.754603055426674 0 0 0
4428 89 1 0 11.724847004411087 14.66402018754814 7.156341090938161 0 0 0
3764 76 1 0 24.249468910168755 14.131071146721453 7.767610783494997 0 0 0
3765 76 1 0 23.844044911150505 13.181329957754995 7.584170347811544 0 0 0
606 13 1 0 29.881188117519322 12.884037887849088 6.387644527884342 0 0 0
607 13 1 0 29.88093045486937 13.973284502646212 6.515970429176949 0 0 0
1238 25 1 0 49.9716926406343 13.115154101858462 6.717479291627626 0 0 0
1239 25 1 0 50.01027957010472 13.80173101036138 7.547546092046878 0 0 0
4427 89 1 0 12.014858343030294 15.56329228005655 6.603846735409082 0 0 0
3762 76 1 0 24.89179358275704 16.234114077416613 7.404541865437329 0 0 0
3763 76 1 0 24.613715467611982 15.155863339284316 7.819708440753409 0 0 0
608 13 1 0 29.78476902830143 15.034646778121338 6.880585229099391 0 0 0
609 13 1 0 30.07005438103126 15.942001577482971 7.446853769098184 0 0 0
610 13 1 0 30.413295608236567 16.975608562465666 7.749775340673707 0 0 0
3883 78 1 0 -0.4651888096255476 17.089808340329604 7.808660824772327 0 0 0
3885 78 1 0 0.951525607082839 18.05816526167969 6.28873391026827 0 0 0
3884 78 1 0 0.2074021692912849 17.56222490463047 7.06650990647187 0 0 0
3760 76 1 0 24.178911611030365 18.128863189508277 6.2783965288719426 0 0 0
3761 76 1 0 24.642111308418315 17.37533151615965 7.024628396582151 0 0 0
611 13 1 0 31.004247557829277 17.812112221875577 8.277970566265227 0 0 0
1093 22 1 0 45.71644409505227 17.42312739856136 6.875605641471593 0 0 0
1094 22 1 0 46.2646142398018 18.20211600985791 7.53775962480053 0 0 0
1095 22 1 0 46.66927650637639 18.883597648572323 8.283921999961558 0 0 0
3575 72 1 0 1.3570184918851387 22.129166029664447 7.435025169320645 0 0 0
3576 72 1 0 0.6870009782368383 22.732918014440667 6.876379203350821 0 0 0
3574 72 1 0 1.8576158652341725 21.45340472086396 8.190882210110942 0 0 0
3894 78 1 0 9.722431660719586 21.509879732517735 6.640081929879632 0 0 0
3895 78 1 0 10.576256749472737 21.905460626594163 7.3691970669862865 0 0 0
3896 78 1 0 11.378114585862694 22.330458702763234 8.013301878938243 0 0 0
729 15 1 0 16.46786020951274 21.8807808975494 6.733614247657073 0 0 0
728 15 1 0 16.2240845405238 21.913817443192343 7.82833550591122 0 0 0
4525 91 1 0 -4.804703471146878 25.1032710634568 6.719517805084538 0 0 0
4526 91 1 0 -4.526737513712396 25.52673551115397 7.740289486453248 0 0 0
715 15 1 0 24.596804885232267 25.78830498982447 6.703390683470795 0 0 0
3749 75 1 0 16.745437727963335 26.59578200380733 6.371668368844009 0 0 0
3748 75 1 0 17.067854111140935 27.535954219194597 6.859670364160336 0 0 0
716 15 1 0 24.136906986826105 25.895359456185457 7.7317244576931445 0 0 0
779 16 1 0 29.336269197831754 27.702913044953927 7.311707262910013 0 0 0
780 16 1 0 29.88631053119636 27.072536303733852 7.939669374220209 0 0 0
3747 75 1 0 17.43298275857254 28.473337781614795 7.415659540844036 0 0 0
3746 75 1 0 17.70648863599347 29.45240576409324 7.92769596521621 0 0 0
778 16 1 0 28.569383483376033 28.19050326128154 6.6642617667732225 0 0 0
3540 71 1 0 33.50044991966282 29.707488088031194 6.38909472664661 0 0 0
3541 71 1 0 33.36587297491963 29.80428741608271 7.518251485290203 0 0 0
3231 65 1 0 48.46144487074857 32.18519558018033 7.795299970270867 0 0 0
3230 65 1 0 49.393137234616475 31.6069678074167 7.496313417936451 0 0 0
3228 65 1 0 50.80010894722096 30.217843424536447 6.2176363984162615 0 0 0
3229 65 1 0 50.10704091663595 30.829229793914045 6.900531085354203 0 0 0
3185 64 1 0 -5.01855431458267 33.93714087552651 8.16595700485973 1 0 0
3237 65 1 0 42.66934100908736 34.49838500176803 7.038590692805105 0 0 0
3234 65 1 0 45.45150116353108 33.10932759140505 8.259229843638083 0 0 0
3236 65 1 0 43.459610465314725 33.98749596352554 7.595294502278166 0 0 0
3235 65 1 0 44.473970823421055 33.45813711674012 8.040013599744125 0 0 0
3232 65 1 0 47.49703333782903 32.41177009276897 8.116727138449518 0 0 0
3233 65 1 0 46.45447296018884 32.76193322669998 8.232576590989526 0 0 0
3186 64 1 0 -4.914362025374387 34.67210479618874 7.288467039270242 1 0 0
3187 64 1 0 -4.740198724463848 35.25510551755544 6.284257196459017 1 0 0
818 17 1 0 35.96628967220124 36.453329974177244 6.556608994837095 0 0 0
3238 65 1 0 42.1488851474132 35.21247511818208 6.3449196905722856 0 0 0
4018 81 1 0 -1.5528000192846074 38.50822676712435 6.439959651897411 0 0 0
819 17 1 0 35.57151832607858 37.16052707117857 7.169841203507196 0 0 0
820 17 1 0 34.85643624911462 37.82681057811771 7.764176981907409 0 0 0
3200 64 1 0 45.24311596715227 38.0832308474205 7.388813973766733 0 0 0
3199 64 1 0 45.61539407859005 37.96235789457467 6.4340063406341494 0 0 0
2944 59 1 0 50.16755112447372 38.16136038264277 7.168320680181644 0 0 0
2943 59 1 0 50.077787209552525 37.26687442415926 7.806956045122465 0 0 0
4019 81 1 0 -1.3216260385698004 38.99393552190478 7.41921211892081 0 0 0
4020 81 1 0 -0.8178082675083508 39.483720541629715 8.28889026016436 0 0 0
3625 73 1 0 4.034469192603311 41.09048637280069 7.190771149629608 0 0 0
3626 73 1 0 4.435837932566944 40.24994508439328 7.845767123109769 0 0 0
4889 98 1 0 23.890057630423197 39.40660516768523 6.169569248746908 0 0 0
4888 98 1 0 24.336765010774773 39.251896714498606 7.27416312139222 0 0 0
4887 98 1 0 24.799453504117736 39.41322649123907 8.239442571018818 0 0 0
3315 67 1 0 38.797031820777875 40.92801154604823 8.155699579462167 0 0 0
2946 59 1 0 50.05235880428118 40.17829849370779 6.310887191211837 0 0 0
2945 59 1 0 50.25557796723165 39.179571028779435 6.623929361837084 0 0 0
3623 73 1 0 3.159443434591457 43.020076052261786 6.6692708431967365 0 0 0
3624 73 1 0 3.717179841580476 42.14573444681224 6.997618638814252 0 0 0
3320 67 1 0 33.73222694700384 43.065322732014586 7.612739330218152 0 0 0
3319 67 1 0 34.80793112948451 42.82543287113889 7.826490255681199 0 0 0
3318 67 1 0 35.82564392887422 42.33378462901609 7.9674392175172555 0 0 0
3317 67 1 0 36.79603210741063 41.74462106372166 7.8968107136336885 0 0 0
3316 67 1 0 37.723394952358156 41.3826290549883 8.136610464726333 0 0 0
3621 73 1 0 1.5634856304431046 44.4245066080204 6.211836618319164 0 0 0
3622 73 1 0 2.4587540950171056 43.694851480585434 6.374851423746627 0 0 0
3701 75 1 0 5.985942078831545 45.505619876959095 7.58583291145347 0 0 0
3324 67 1 0 29.682236305656126 44.459088469105374 8.290655405070808 0 0 0
3322 67 1 0 31.718334188752383 44.08825127933655 7.539866758332375 0 0 0
3323 67 1 0 30.612041784526774 44.31837414224752 7.787825243363068 0 0 0
3321 67 1 0 32.710090008921775 43.46191564068705 7.353693362221991 0 0 0
3671 74 1 0 51.96352332447501 44.265445290322546 8.31253417275887 -1 0 0
3672 74 1 0 51.69371498087582 45.25013106407167 7.995514091606919 -1 0 0
3702 75 1 0 6.758417712496572 45.84747325191152 8.216811818541665 0 0 0
4907 99 1 0 20.48880196623307 46.41273196545706 7.752487794942258 0 0 0
4908 99 1 0 21.217290878453863 46.07401303663049 7.018789360743746 0 0 0
4909 99 1 0 21.895931064152716 45.646705856939796 6.300859536437084 0 0 0
3274 66 1 0 36.834845055218466 46.784218154879085 6.322430132956911 0 0 0
3275 66 1 0 37.13771302201765 47.16315421400047 7.240027250080707 0 0 0
3674 74 1 0 51.86542097052728 47.599020533640626 7.918983489097826 -1 0 0
3673 74 1 0 51.71276801464273 46.43085958151173 7.905490303752677 -1 0 0
3675 74 1 0 -6.962711828453272 48.667653331677336 8.076224138632488 0 0 0
3364 68 1 0 16.620914532522107 49.095569966494324 7.791329281319527 0 0 0
3363 68 1 0 15.879982645189521 48.28446141064791 8.057339720925043 0 0 0
3365 68 1 0 17.471081395454647 49.76723576585535 7.472503757790504 0 0 0
3005 61 1 0 43.433276400897654 49.82333571524859 7.348789186667449 0 0 0
3006 61 1 0 44.314095183066094 49.42815974163608 8.093754850389349 0 0 0
248 5 1 0 13.414995685403685 51.82066128111813 6.801835099618597 0 -1 0
3366 68 1 0 18.2500329325979 50.39102677778657 7.140893063711617 0 0 0
3367 68 1 0 19.214445098598535 51.01599343944595 6.977069602070386 0 0 0
3368 68 1 0 20.270171791020175 51.44750717865283 7.086795211045808 0 0 0
3297 66 1 0 25.727888515913563 50.41876350721979 6.970120059905675 0 0 0
3296 66 1 0 26.01355122158795 50.83456628491239 8.02326737800042 0 0 0
1200 24 1 0 29.635528866754736 50.19628342815452 6.806879045980647 0 -1 0
1199 24 1 0 30.597190811012435 50.260212015372254 7.0561349091797405 0 -1 0
1198 24 1 0 31.748599546472402 50.466343342666086 7.1067030634112225 0 -1 0
1197 24 1 0 32.75048023589383 50.89563349590886 7.085159782433976 0 -1 0
1196 24 1 0 33.723611824299695 51.38525834190589 7.2474438118155176 0 -1 0
1195 24 1 0 34.65202457234783 51.772919473301904 7.574681920067507 0 -1 0
3004 61 1 0 42.47336278458845 50.24338891691651 6.924953978387955 0 0 0
3003 61 1 0 41.63910607160271 50.702807141044424 6.357104175865064 0 0 0
3680 74 1 0 -3.5824656133851347 -6.147352719995417 8.968594049930065 0 1 0
3679 74 1 0 -4.527799084142197 -6.693046019076519 8.797688202818774 0 1 0
3681 74 1 0 -2.5731016256548984 -5.61134459484105 9.265088960489217 0 1 0
3682 74 1 0 -1.714114351922309 -5.118952216978166 9.670123971287067 0 1 0
4385 88 1 0 5.916689760433795 -6.953601756901504 10.092987904775969 0 1 0
4384 88 1 0 6.888782489266167 -6.604638278019547 10.296716891733482 0 1 0
246 5 1 0 13.468297802802184 -5.999622318435662 8.641599208872233 0 0 0
245 5 1 0 13.430486934005636 -5.166517879635147 9.446625171641825 0 0 0
1193 24 1 0 36.52579184476329 -6.282474201921232 8.33712930238093 0 0 0
1191 24 1 0 38.69825252659508 -6.167595903313713 9.044568233483414 0 0 0
1192 24 1 0 37.534304734319505 -6.0525408432624825 8.769904529986462 0 0 0
1190 24 1 0 39.70801618785271 -6.455265030034421 9.316823241141185 0 0 0
1189 24 1 0 40.77680153540613 -6.370376555072375 9.753262209459079 0 0 0
1188 24 1 0 41.7000342679774 -6.488250652013094 10.236222419927053 0 0 0
1214 25 1 0 48.137423891699655 -5.7172381618230945 8.708686739405572 0 0 0
1215 25 1 0 49.009949976855175 -5.447060524168354 9.130404980381776 0 0 0
1216 25 1 0 49.962892754857634 -4.928757068463107 9.663365611340204 0 0 0
1219 25 1 0 -6.549589738282548 -3.1043749833898766 9.995176600844353 1 0 0
3683 74 1 0 -0.821936511858911 -4.549849472340841 10.188102671905536 0 1 0
244 5 1 0 13.27931852664356 -4.337277710493649 10.244090033050929 0 0 0
1218 25 1 0 51.712818868966 -3.7868506677460805 9.942185372071396 0 0 0
1217 25 1 0 50.785091999591735 -4.281101499486787 9.865106795593945 0 0 0
1220 25 1 0 -5.7261894636485815 -2.2295997738563083 9.839476307285372 1 0 0
1221 25 1 0 -5.195442252869267 -1.353831997275055 9.298953041528861 1 0 0
1222 25 1 0 -4.927395343609978 -0.4989057410584298 8.532762555976594 1 0 0
927 19 1 0 19.743839736342476 -1.892712074260903 8.664811736375352 0 0 0
926 19 1 0 20.669849363923014 -2.008158739637254 9.374079397376365 0 0 0
925 19 1 0 21.58109624816063 -2.351446361086573 10.050922615088378 0 0 0
1020 21 1 0 27.70968596106539 -1.646641225733521 8.762923546298788 0 0 0
1019 21 1 0 27.065100994831266 -0.6169359874850973 8.820376098736677 0 0 0
1021 21 1 0 28.287019620543433 -2.516799029651983 8.58917370576792 0 0 0
213 5 1 0 34.55743443895576 -1.9190524774671864 8.432680317225971 0 0 0
215 5 1 0 35.687257291341766 -2.2270127813278027 10.39833582809833 0 0 0
214 5 1 0 35.18037333957193 -2.042951397035024 9.33321666267657 0 0 0
1018 21 1 0 26.53271128132296 0.33738990208833247 9.27186229485826 0 0 0
1017 21 1 0 25.95239256972229 1.2781036430217674 9.388102398013256 0 0 0
3817 77 1 0 -3.943737379168394 3.7928139805065464 9.991961173794554 0 0 0
4468 90 1 0 2.1121893418196542 2.7372816782339044 8.682972145506335 0 0 0
4467 90 1 0 1.8370476042191137 3.085608596542944 9.657499026377232 0 0 0
1015 21 1 0 25.230676132370597 3.1823934227045205 8.779724219945537 0 0 0
1016 21 1 0 25.533844707707427 2.2287344473866426 9.164133516731013 0 0 0
1284 26 1 0 41.63688318975394 2.045114257502874 8.745216888600032 0 0 0
1283 26 1 0 42.45541142505499 2.4018446399486306 9.497979991737228 0 0 0
1282 26 1 0 43.166739689082306 2.8795053678140556 10.180060195834214 0 0 0
1123 23 1 0 48.12085147701529 3.2854581027598266 10.368096187798312 0 0 0
1124 23 1 0 48.01124124483564 2.0641507838007436 10.499869038177362 0 0 0
3816 77 1 0 -3.44195016706519 4.375734459297797 9.00527786295111 0 0 0
260 6 1 0 5.118749820523967 5.7189446623243345 10.208383440105012 0 0 0
259 6 1 0 5.748370762522242 5.263629064464976 9.315162873107072 0 0 0
258 6 1 0 6.194828301662685 4.829946127089221 8.374165989921098 0 0 0
133 3 1 0 13.936545482519485 5.149591701395783 8.995526267557679 0 0 0
132 3 1 0 14.14131216160953 4.532594019410851 9.829356418426823 0 0 0
1014 21 1 0 24.982617015673778 4.238080488452046 8.359620467558196 0 0 0
1121 23 1 0 47.79684495485562 5.4586237380317355 10.170896747091758 0 0 0
1122 23 1 0 48.0079412883423 4.385777428901446 10.327181866960409 0 0 0
1119 23 1 0 47.34679819225428 7.590199676525575 9.579920391776128 0 0 0
1120 23 1 0 47.64803106122045 6.631676179849817 10.02158524393118 0 0 0
4444 89 1 0 -3.293571431927393 9.940156951034599 9.86881265218456 0 0 0
4443 89 1 0 -2.726471519793317 9.248158350801488 10.51337139013618 0 0 0
4445 89 1 0 -3.990443791480222 10.282490770124722 9.141200159307726 0 0 0
630 13 1 0 40.92047284732659 9.067825925736875 9.55620344365607 0 0 0
631 13 1 0 41.20967282357446 8.401472943094923 8.725643409410782 0 0 0
629 13 1 0 41.16245405392963 9.854632000513934 10.24702023182846 0 0 0
1117 23 1 0 46.84473046168574 9.79042436236116 9.032317029663702 0 0 0
1118 23 1 0 47.2527458004502 8.630962292752947 9.22058042403267 0 0 0
4435 89 1 0 5.637855681923971 10.71920986559705 10.332232924500424 0 0 0
4433 89 1 0 7.460235514114124 11.844118203457308 9.449625049099119 0 0 0
4434 89 1 0 6.552235811182313 11.20712031215633 9.754311779466326 0 0 0
4432 89 1 0 8.33536076404837 12.23947465824312 8.967085512817317 0 0 0
4431 89 1 0 9.384086128034983 12.548958389318544 8.626490786154555 0 0 0
1116 23 1 0 46.33224774918259 10.736337695703883 9.199540174361042 0 0 0
1115 23 1 0 45.90456600609834 11.756300460570591 9.641212300674168 0 0 0
1114 23 1 0 45.735140512942145 12.806323433277049 9.893029211438684 0 0 0
1240 25 1 0 50.20591150868859 14.635190072961587 8.351012818086657 0 0 0
3880 78 1 0 -2.603764097539631 16.241810034871925 10.26190447538385 0 0 0
3881 78 1 0 -1.8473012962775137 16.11395028337199 9.337577275050789 0 0 0
3882 78 1 0 -1.104000092822177 16.435920621607593 8.574425269499995 0 0 0
600 12 1 0 16.569771093911736 16.479251239048892 9.308015935408028 0 0 0
599 12 1 0 17.45358358810086 17.036776099300834 9.615516652309356 0 0 0
1241 25 1 0 50.51328439186282 15.319633178687818 9.097463071237541 0 0 0
1242 25 1 0 51.04712076181953 16.163914145994045 9.59091176325322 0 0 0
1243 25 1 0 51.61670958581039 16.868057843192304 10.165137335526765 0 0 0
3570 72 1 0 4.645596099414333 18.794917095358308 10.332136602282922 0 0 0
598 12 1 0 18.348050093673024 17.66392714098106 9.984851580721452 0 0 0
597 12 1 0 19.31503181886251 18.26539009994326 10.33922671860274 0 0 0
612 13 1 0 31.730337407410733 18.469108489070273 8.92244658509879 0 0 0
613 13 1 0 32.512578664875825 19.040118341506616 9.495444118797554 0 0 0
3572 72 1 0 3.244522886070521 20.10873178184264 9.233077649342704 0 0 0
3573 72 1 0 2.5542470375794926 20.72905406468124 8.728141616160288 0 0 0
3571 72 1 0 3.7298020581790934 19.30814209079225 9.804835922689987 0 0 0
614 13 1 0 33.45285209791818 19.53127043090191 10.054521402757413 0 0 0
1096 22 1 0 47.14569345264838 19.64381181799759 8.991274810085567 0 0 0
1097 22 1 0 47.41846965668089 20.413341407902124 9.823964036569071 0 0 0
3897 78 1 0 11.977869479405568 22.954902824926116 8.691702098915354 0 0 0
3898 78 1 0 12.627285729703363 23.513916663603233 9.40627877465799 0 0 0
727 15 1 0 16.621133887227305 22.182752653864096 8.78191706183922 0 0 0
726 15 1 0 17.070222460802018 22.567293545238247 9.701333466170613 0 0 0
4527 91 1 0 -3.9807530329762186 25.79554479171071 8.833583510632545 0 0 0
3640 73 1 0 6.605662952950989 24.884043520141013 9.887933948105443 0 0 0
3641 73 1 0 7.291558026965724 24.041642631628527 10.217823696775712 0 0 0
3899 78 1 0 13.089068619840138 24.214381252919587 10.085923734148363 0 0 0
718 15 1 0 23.09883051550895 25.724539622724084 9.83847082776301 0 0 0
717 15 1 0 23.770337566716496 25.728032923164104 8.809286956156948 0 0 0
784 16 1 0 31.89248098528639 23.836996079507518 10.388796203332577 0 0 0
782 16 1 0 31.069108537048706 25.456270631663482 9.066994997174938 0 0 0
783 16 1 0 31.730757578233924 24.72095883417385 9.580361758340475 0 0 0
4528 91 1 0 -3.646031271863164 25.84161877085983 9.97945000462487 0 0 0
3639 73 1 0 6.116368774291319 25.943492463058735 9.769218306228925 0 0 0
3638 73 1 0 5.471557471928319 26.98897459629667 9.715433495527913 0 0 0
781 16 1 0 30.335660549469704 26.317581371522333 8.585839447546915 0 0 0
3636 73 1 0 5.042910484453879 29.17003691541256 9.828436679280983 0 0 0
3637 73 1 0 5.374799640294936 28.048310943029254 9.75498807749869 0 0 0
3635 73 1 0 5.044447892470677 30.300109469265493 9.80244979504106 0 0 0
3634 73 1 0 4.910022503496329 31.419232260570073 9.627390391115684 0 0 0
3745 75 1 0 17.959728111239382 30.315112769501873 8.649681846118211 0 0 0
3744 75 1 0 18.25299133615252 30.999614051631116 9.577836226500066 0 0 0
3743 75 1 0 18.713821474825785 31.62118473873207 10.250270473114016 0 0 0
3544 71 1 0 32.3096906047525 30.98885110110084 10.45150763220331 0 0 0
3543 71 1 0 32.82792193892921 30.618072648282116 9.52376130880662 0 0 0
3542 71 1 0 33.01058730120447 30.32305798189229 8.444392276520686 0 0 0
3184 64 1 0 -4.863463275442981 33.474163785283196 9.064700260577519 1 0 0
3183 64 1 0 -4.792264204808122 32.92551879271524 10.056722114365417 1 0 0
3632 73 1 0 4.319326414346832 33.75526644264928 9.816666799750864 0 0 0
3633 73 1 0 4.52724229573016 32.577135938039774 9.774878501101316 0 0 0
1347 27 1 0 33.42131880921521 34.584887665962974 10.383798396189 0 0 0
3630 73 1 0 4.00163032782111 36.05238729097093 9.589472327381673 0 0 0
3631 73 1 0 4.194110874111402 34.889690770214465 9.669618392890463 0 0 0
3351 68 1 0 9.587971200921883 36.5444837695924 9.138587416793014 0 0 0
1348 27 1 0 32.36215140997816 34.893644297706416 9.917639100157452 0 0 0
1350 27 1 0 30.51213427942762 35.01248202524408 8.914812954616648 0 0 0
1349 27 1 0 31.349932421886837 34.82562561657531 9.560845294047086 0 0 0
2940 59 1 0 49.84436799209291 34.869837832271365 10.1787014096463 0 0 0
2942 59 1 0 50.044279806957015 36.445020083625984 8.619482389225213 0 0 0
2941 59 1 0 50.02070552286927 35.579732281408766 9.264824006682884 0 0 0
3665 74 1 0 -4.3469758109341825 38.69849349099305 10.40707680026707 0 0 0
3629 73 1 0 4.145496682113575 37.18855627079385 9.345170210958567 0 0 0
3628 73 1 0 4.3241624523981885 38.23555931579854 8.934498618712425 0 0 0
3352 68 1 0 10.12214041725635 37.27621349394575 8.820919285587483 0 0 0
3353 68 1 0 10.551087026501861 38.285425801267955 8.522141752153045 0 0 0
821 17 1 0 34.456724504471076 38.26233311647563 8.586739906731701 0 0 0
822 17 1 0 33.933292561893964 38.755712982121175 9.505373585069217 0 0 0
3667 74 1 0 -5.044321302383383 40.485439234350814 9.247601019547844 0 0 0
3666 74 1 0 -4.501311761090844 39.61841335596408 9.728095378009874 0 0 0
4021 81 1 0 -0.7165078430538766 40.011921034059284 9.233742015691305 0 0 0
4022 81 1 0 -0.41111985171397736 40.58582123042289 10.186431109480623 0 0 0
3627 73 1 0 4.61351347593873 39.309236725974735 8.571725850802126 0 0 0
3355 68 1 0 11.445553124022807 40.42163315676584 8.60121698053139 0 0 0
3354 68 1 0 10.996881127614586 39.31597468443514 8.5259635264566 0 0 0
4886 98 1 0 25.31053475962866 39.61181241917614 9.32937553450498 0 0 0
4885 98 1 0 25.862837560207733 39.67440841433408 10.406224068296778 0 0 0
3314 67 1 0 39.752096288938674 40.65532521287322 8.578694736902863 0 0 0
3313 67 1 0 40.891301072034906 40.45668684280743 9.026375758517679 0 0 0
3312 67 1 0 41.911855139676284 40.296265936445515 9.664470945596458 0 0 0
3311 67 1 0 42.69365224446039 40.084667303566036 10.311955927635312 0 0 0
3668 74 1 0 -5.734656010397957 41.20442303307233 8.71061619680216 0 0 0
3670 74 1 0 -6.902421785087526 43.198432141514694 8.500426513841148 0 0 0
3669 74 1 0 -6.262563921703694 42.239103824398626 8.501606010966103 0 0 0
3356 68 1 0 11.847760402698992 41.51841220956617 8.608732759139947 0 0 0
3357 68 1 0 12.262704723693885 42.547347328303275 8.778383708969457 0 0 0
3358 68 1 0 12.67613922720588 43.54267884443831 8.75853106578744 0 0 0
3359 68 1 0 13.314612300332998 44.58029205139472 8.886162384457434 0 0 0
3360 68 1 0 13.997840307755915 45.482841702992616 8.791518534267063 0 0 0
3326 67 1 0 27.789417747107038 45.082936783901374 9.102784922302043 0 0 0
3325 67 1 0 28.743637277787432 44.77805158116947 8.672181545859008 0 0 0
3703 75 1 0 7.269587812506599 46.12303738498345 9.130178878183255 0 0 0
3704 75 1 0 7.836272730882316 46.15223067609355 10.184856840652591 0 0 0
3361 68 1 0 14.657845532248515 46.35709190159668 8.414788363613066 0 0 0
3362 68 1 0 15.475335138543064 47.26126157106054 8.352749632580325 0 0 0
4905 99 1 0 19.34968730040288 46.68621037351099 9.662061146795745 0 0 0
4906 99 1 0 19.726848981736037 46.6283800959178 8.564049604782854 0 0 0
3328 67 1 0 26.02248172166076 45.99813222963618 10.125310207645656 0 0 0
3327 67 1 0 26.92673792345696 45.65024126891039 9.56587945465636 0 0 0
3276 66 1 0 37.213916420569944 47.23902827395923 8.43662385160442 0 0 0
3277 66 1 0 37.037583814144085 47.23297389863696 9.551035792434812 0 0 0
3676 74 1 0 -6.42038875755554 49.60500496740639 8.4339887903294 0 0 0
3007 61 1 0 45.123361925949624 49.06574981256245 8.667377311755732 0 0 0
3008 61 1 0 45.95688347012568 49.018874147678325 9.435013935117544 0 0 0
3009 61 1 0 46.90031718475697 49.340810587078444 10.052997343541717 0 0 0
3677 74 1 0 -6.046135753271506 50.64326076825125 8.572755623297253 0 0 0
3678 74 1 0 -5.323009682298571 51.56499739069869 8.804694553320433 0 0 0
4387 88 1 0 3.831352791933478 51.12660221015499 9.882342721184052 0 0 0
4388 88 1 0 2.9400637067610687 50.72962439107506 10.414873036204046 0 0 0
4386 88 1 0 4.926330405635173 51.62479977418183 9.842621469857251 0 0 0
3295 66 1 0 26.008692034132036 51.16929058222019 9.147901201709507 0 0 0
3294 66 1 0 26.22404607826077 51.23292210314627 10.277049605570593 0 0 0
4383 88 1 0 7.895483988960322 -6.808813460810753 10.656581976055245 0 1 0
4382 88 1 0 8.918099131962121 -6.919917448511604 11.075465115131006 0 1 0
1187 24 1 0 42.78461993390674 -6.334290835120614 10.566446858483165 0 0 0
1186 24 1 0 43.78914056841011 -6.451062138684633 10.84742063809595 0 0 0
1185 24 1 0 44.605247305856125 -6.711875103371637 11.597578831068796 0 0 0
1184 24 1 0 45.35540777171291 -6.711466343675123 12.308297869484079 0 0 0
3684 74 1 0 0.016511800312596716 -4.278305081153724 10.749492550145659 0 1 0
3685 74 1 0 0.848037451516072 -3.9118420230386617 11.301329671222483 0 1 0
3686 74 1 0 1.8423910084205868 -3.8205103595860157 11.88539903060575 0 1 0
3687 74 1 0 2.640850991262338 -4.127938796951604 12.603221500723064 0 1 0
243 5 1 0 13.598116991815463 -3.3385324531458114 10.878924947028928 0 0 0
242 5 1 0 14.162443562908996 -2.6569614722972683 11.286008506676277 0 0 0
924 19 1 0 22.430909675451502 -2.663722163161521 10.691156533209908 0 0 0
923 19 1 0 23.27932971139513 -2.8070922854428004 11.414743958097047 0 0 0
922 19 1 0 24.27225481415717 -2.944532234254021 11.95028101770555 0 0 0
921 19 1 0 25.32996847600532 -2.885696192433582 12.302853380829013 0 0 0
241 5 1 0 14.9154604940123 -1.876313647090899 11.438620891350357 0 0 0
240 5 1 0 15.549275453559662 -0.9417573388642159 11.55235352870208 0 0 0
216 5 1 0 35.83223551346655 -2.257780266898347 11.496494224289572 0 0 0
217 5 1 0 35.6576870029792 -2.5042422157734125 12.569945106480763 0 0 0
239 5 1 0 16.11658470691103 0.06548329179941792 11.858840386916354 0 0 0
238 5 1 0 17.08168441513323 0.6153943945604508 12.150398359969689 0 0 0
237 5 1 0 18.02346856268145 1.1795774386157585 12.24391361709938 0 0 0
236 5 1 0 18.957851352236712 1.7084069926171537 12.534829574533743 0 0 0
1127 23 1 0 46.47840351815741 -0.24710070410388635 12.247570132257582 0 0 0
1126 23 1 0 47.07987740603175 0.29852561058675425 11.40384554359296 0 0 0
1125 23 1 0 47.42105636253605 1.1186552644751906 10.642168867502237 0 0 0
3820 77 1 0 -5.8081286488866555 2.0306968992990484 12.12573635462586 0 0 0
3819 77 1 0 -5.207641421689999 2.611643248642946 11.382740846219841 0 0 0
3818 77 1 0 -4.649785911418671 3.152661299011263 10.537096838586784 0 0 0
4466 90 1 0 1.2261636470212078 2.984629182607729 10.558233069419208 0 0 0
4465 90 1 0 0.5047781031014579 3.160660544180483 11.49243103040757 0 0 0
4464 90 1 0 -0.24100863758045588 3.5791919785852175 12.19062994389777 0 0 0
131 3 1 0 14.008099734251699 3.9305711746212038 10.764030066337737 0 0 0
130 3 1 0 13.827716040649033 3.4483903079283054 11.792717448742561 0 0 0
235 5 1 0 19.925874917028285 2.2096521755881855 12.666739376837121 0 0 0
889 18 1 0 35.264823707203675 3.7178441340252784 12.38783689878846 0 0 0
1281 26 1 0 43.99588026825195 3.41242375742117 10.818836538988455 0 0 0
261 6 1 0 4.58975942340263 5.928332955672173 11.150523661866568 0 0 0
262 6 1 0 4.224946289045146 6.113841717304286 12.19422154370482 0 0 0
886 18 1 0 32.76056559023675 5.517324008161345 11.027570200241863 0 0 0
887 18 1 0 33.71455906952452 4.928014232121523 11.347199327837798 0 0 0
888 18 1 0 34.56244004652055 4.380919292820509 11.887928899677293 0 0 0
1280 26 1 0 44.57153407379423 4.008003616889708 11.712254679173187 0 0 0
1279 26 1 0 44.935113384030814 4.692037794046933 12.438839242237602 0 0 0
877 18 1 0 23.48308628656315 7.3613231503185235 12.553770940647158 0 0 0
878 18 1 0 24.533563806667093 7.253171081830086 12.42662615236509 0 0 0
879 18 1 0 25.53996157228834 7.2537149810666275 11.982462987083242 0 0 0
880 18 1 0 26.683234631051505 7.5445636799425 11.570782037410908 0 0 0
881 18 1 0 27.827201506349695 7.939280034158698 11.425328018945883 0 0 0
883 18 1 0 29.997331078937737 7.621936164200038 11.172806413176023 0 0 0
882 18 1 0 28.897390079083895 8.017437668369903 11.141220792633181 0 0 0
885 18 1 0 31.91451593451377 6.25822731575115 10.989612339247342 0 0 0
884 18 1 0 31.008648676001656 7.024613925403984 11.012494250322971 0 0 0
4442 89 1 0 -1.659458609945285 8.904115317899626 10.917207123090758 0 0 0
4441 89 1 0 -0.544932559682829 8.82355981465687 11.177152964344009 0 0 0
4439 89 1 0 1.5409114390205487 9.2347470891158 11.400367904271075 0 0 0
4440 89 1 0 0.44891888779933153 8.801037824090663 11.549326699423139 0 0 0
4437 89 1 0 3.655631787171349 9.956515178957677 11.117276023211307 0 0 0
4438 89 1 0 2.5885731487481096 9.684919321008072 11.2575690993098 0 0 0
4436 89 1 0 4.688323908912361 10.312693397526235 10.835571936607023 0 0 0
2150 43 1 0 37.79547883322841 8.963304062295819 12.495396740936854 0 0 0
3561 72 1 0 11.989601113381475 12.642480228719693 12.573996122771094 0 0 0
3560 72 1 0 13.0303126732288 12.43921171490569 12.69815842646865 0 0 0
3559 72 1 0 14.127602141014645 12.23787726103219 12.604921560871007 0 0 0
3558 72 1 0 15.262671171989126 12.462250081736151 12.673461308182311 0 0 0
627 13 1 0 41.30634717888326 11.40592695999149 11.645481539445269 0 0 0
628 13 1 0 41.18340112722707 10.776079000946917 10.786091096357891 0 0 0
626 13 1 0 41.17363780737568 12.315659645030582 12.450213085502755 0 0 0
3564 72 1 0 9.161124997102185 14.168073269496285 12.135979414893917 0 0 0
3563 72 1 0 10.052973025691998 13.45648824910825 12.469755563712495 0 0 0
3562 72 1 0 10.868621836159397 12.879585766002323 12.699821088859014 0 0 0
1113 23 1 0 45.45833807940435 13.758791194102562 10.570042734052706 0 0 0
1112 23 1 0 45.4601696834596 14.844857729818312 10.714949964220411 0 0 0
3879 78 1 0 -2.6239586581417838 16.475136737450892 11.27104024166466 0 0 0
3878 78 1 0 -2.619068708984402 16.81397748895057 12.37405223225997 0 0 0
3566 72 1 0 7.882936429404993 16.0007433067741 11.858072343643629 0 0 0
3567 72 1 0 7.067490899813064 16.66196211671243 11.432063709569054 0 0 0
3565 72 1 0 8.6143147103894 15.13395374292958 12.05044482506331 0 0 0
1111 23 1 0 45.277371008464776 15.881656644264991 11.125928588466858 0 0 0
1110 23 1 0 45.05229012179389 17.052946275983363 11.6110420487252 0 0 0
1245 25 1 0 -6.258865814721231 18.689067031831776 10.798612993067538 1 0 0
1244 25 1 0 -6.95491981501273 17.757559000264823 10.618017363341902 1 0 0
3569 72 1 0 5.414174255680623 18.057229317022166 10.716052193752956 0 0 0
3568 72 1 0 6.186204386074076 17.356176582578158 11.06512926844246 0 0 0
596 12 1 0 20.289891464775785 18.733320640349504 10.53155720680655 0 0 0
618 13 1 0 37.30506859404022 19.144280919063398 12.525311068597002 0 0 0
1108 23 1 0 44.525180892982114 19.17339920713506 12.168223478062746 0 0 0
1109 23 1 0 44.874354327354645 18.0634127287113 11.941488675700496 0 0 0
1246 25 1 0 -5.62500608507445 19.623541729469178 10.777121365374892 1 0 0
1247 25 1 0 -4.8930210672364804 20.16420924673438 11.354575084974005 1 0 0
1248 25 1 0 -3.895930902464305 20.616246768178097 11.849599465696235 1 0 0
1249 25 1 0 -3.161631253329576 21.133157403924404 12.392754135559002 1 0 0
3645 73 1 0 9.960943164578994 21.109162746487236 12.473640090681252 0 0 0
3646 73 1 0 10.54990494483679 20.1998398748544 12.683083949203585 0 0 0
595 12 1 0 21.21255896016939 19.538447521284642 10.665504175212217 0 0 0
594 12 1 0 21.987464159469564 20.197829707262237 11.045867199062062 0 0 0
593 12 1 0 23.016846247990244 20.669806859977378 11.311366780730753 0 0 0
592 12 1 0 23.8699987198342 21.40148768497221 11.696419662687672 0 0 0
615 13 1 0 34.47429912657905 19.852314741641965 10.67800029457582 0 0 0
616 13 1 0 35.498190628391754 19.65528599468192 11.224142739236944 0 0 0
617 13 1 0 36.45992766920483 19.524552084221092 11.952551081690642 0 0 0
1106 23 1 0 43.114945441199595 20.966932859366462 12.485066461989915 0 0 0
1107 23 1 0 43.86674483502534 20.121500714549338 12.162313253527273 0 0 0
1098 22 1 0 47.845779872312086 21.158202756178593 10.687879210815861 0 0 0
1250 25 1 0 -2.456463170381057 21.871323471480057 12.477427577027518 1 0 0
3642 73 1 0 7.8796714224768625 23.265913523504214 10.745679069292013 0 0 0
3644 73 1 0 9.144140262956252 21.85973530052597 11.907106269403183 0 0 0
3643 73 1 0 8.53895329129254 22.42643184450903 11.327095182946755 0 0 0
725 15 1 0 17.491575797908222 23.06265697203411 10.7117405196212 0 0 0
724 15 1 0 18.37072470122659 23.28915829217901 11.36059883129801 0 0 0
591 12 1 0 24.73434985158503 22.017048130693755 12.187695766455883 0 0 0
785 16 1 0 32.29295469004743 23.340250770435734 11.20504855924865 0 0 0
786 16 1 0 32.607947166780356 22.632433029745002 12.174976181662743 0 0 0
1105 23 1 0 42.57791989173412 21.920789773623344 12.564976449929187 0 0 0
1099 22 1 0 48.260272887094146 21.854552434826704 11.504078585309971 0 0 0
1100 22 1 0 48.58824153704125 22.414701249779093 12.282775305143929 0 0 0
3900 78 1 0 13.556477376916217 24.883292140641643 10.673888962662186 0 0 0
723 15 1 0 19.15223261823112 23.764491753203238 11.958381236842383 0 0 0
722 15 1 0 20.16380510584917 24.191815382458465 12.206629782337686 0 0 0
721 15 1 0 20.91547208637359 25.030376147341237 11.970540096009875 0 0 0
719 15 1 0 22.473830599368206 25.610064441898416 10.638844575466253 0 0 0
720 15 1 0 21.82702544905379 25.2706903640173 11.49823050036642 0 0 0
1253 26 1 0 -6.563288619431577 27.248784338239847 12.662001988325239 1 0 0
4529 91 1 0 -3.155280400120362 26.159976477625595 10.881978607831924 0 0 0
4530 91 1 0 -2.5092477895330316 26.477925096642306 11.628478606412934 0 0 0
1252 26 1 0 -6.807377522957386 28.193235576092356 12.12476756056397 1 0 0
1335 27 1 0 45.14380203910371 29.845945175228223 12.703912537623598 0 0 0
1251 26 1 0 51.867119541969785 29.013900751936333 11.799189864026808 0 0 0
3546 71 1 0 31.17767765544151 31.595556259166216 12.319001601657094 0 0 0
3545 71 1 0 31.80020457638403 31.309872784711914 11.372615013168435 0 0 0
1338 27 1 0 42.68536940572028 32.14863456378949 12.19370457696089 0 0 0
1336 27 1 0 44.40086172388898 30.724915320166403 12.502151958427502 0 0 0
1337 27 1 0 43.550864865326 31.493532101668283 12.258267577164402 0 0 0
3181 64 1 0 -4.949785635308323 32.68379760153439 12.297382520805309 1 0 0
3182 64 1 0 -4.8308694961204255 32.66229916434169 11.185670171434516 1 0 0
3742 75 1 0 19.251372880993912 32.472589608690804 10.913643021937837 0 0 0
3741 75 1 0 19.792964965018466 33.31288677415162 11.400139703305983 0 0 0
3740 75 1 0 20.066188682410093 34.262386543927505 11.84715995150606 0 0 0
1346 27 1 0 34.38260712557408 34.53115460067138 10.851797818720694 0 0 0
1345 27 1 0 35.337704496758406 34.25844336230822 11.447299991637983 0 0 0
1344 27 1 0 36.276146995950086 34.014043399336344 12.054259196976075 0 0 0
1343 27 1 0 37.38013526456325 33.72970544433502 12.452410041673868 0 0 0
1342 27 1 0 38.43742191573572 33.47531113734029 12.482750616550527 0 0 0
1341 27 1 0 39.6064373371533 33.30325799136067 12.474862144044256 0 0 0
1340 27 1 0 40.68170909844611 32.998297399243455 12.224933359262321 0 0 0
1339 27 1 0 41.74064989720913 32.66398289799671 12.18463708577925 0 0 0
2938 59 1 0 49.41650959754444 33.55973197050204 11.923055650850724 0 0 0
2939 59 1 0 49.67423756794642 34.194561185920364 11.014591170100227 0 0 0
3662 74 1 0 -2.3742974568312225 36.66247717964526 12.151444024703714 0 0 0
3661 74 1 0 -1.529266470833732 36.0510826675682 12.498448899017632 0 0 0
3739 75 1 0 20.698775087064412 35.13923454253258 12.18900847464552 0 0 0
3738 75 1 0 21.205337133104774 36.17974571705739 12.18284328195069 0 0 0
1351 28 1 0 28.669994266964963 34.80423214919557 12.390141583324212 0 0 0
3663 74 1 0 -3.22957206983896 37.19928097600233 11.708697186254437 0 0 0
3664 74 1 0 -3.9460642718899006 37.94776300360387 11.13377359532835 0 0 0
3737 75 1 0 21.66493423248004 37.13934009841771 12.274666232609034 0 0 0
3736 75 1 0 22.04620910060229 38.10831900238285 12.654336879702072 0 0 0
4023 81 1 0 0.19344065591894394 40.866001169354966 11.152634590370466 0 0 0
4884 98 1 0 26.430403034567377 39.772792309943235 11.336860689943002 0 0 0
4883 98 1 0 27.130166305230862 39.87862738985508 12.266096209970131 0 0 0
823 17 1 0 33.91227850475185 39.10583889803507 10.638312422109403 0 0 0
824 17 1 0 33.84289263670701 39.59902972626963 11.68849962886407 0 0 0
825 17 1 0 33.703959016724525 40.06256443860025 12.64334087802282 0 0 0
3310 67 1 0 43.56289983074363 39.824422644254106 11.004031605929434 0 0 0
3309 67 1 0 44.257773598702784 39.63100690263768 11.79182949573955 0 0 0
3308 67 1 0 45.291665552706256 39.4907661648601 12.445292421196449 0 0 0
4024 81 1 0 0.9212937871971888 41.19079707777406 11.885709720971349 0 0 0
4025 81 1 0 1.93077012412641 41.34887290263858 12.210763793543666 0 0 0
4026 81 1 0 3.0429458237010585 41.61416522341235 12.428672769703695 0 0 0
2916 59 1 0 41.893065243371694 43.95468954500708 12.699114381811857 0 0 0
2915 59 1 0 42.816909812830204 44.563877606934966 12.655715400897517 0 0 0
2914 59 1 0 43.80127353174532 45.17846283924867 12.399374250288188 0 0 0
2913 59 1 0 44.88224827028514 45.35929213699917 12.675911528490635 0 0 0
3015 61 1 0 -6.515971635886423 47.41756768391388 12.415778201033561 1 0 0
3705 75 1 0 8.242203402649462 46.31510568031759 11.212705786351137 0 0 0
3706 75 1 0 8.280709012843557 46.42484640040695 12.34425995014509 0 0 0
4904 99 1 0 18.80097529724527 46.54220542611526 10.645100197111084 0 0 0
4903 99 1 0 18.087422162605048 46.523529087026205 11.58202353307912 0 0 0
4902 99 1 0 17.660435331540082 46.511959707380974 12.478837723186789 0 0 0
3331 67 1 0 23.667106008396992 46.8743148868328 12.408094482223706 0 0 0
3329 67 1 0 25.25234990187862 46.416052217822035 10.867335789258004 0 0 0
3330 67 1 0 24.434855389229867 46.61270140277757 11.606725466404736 0 0 0
3279 66 1 0 36.23456929357348 46.99588501759268 11.528818518684979 0 0 0
3280 66 1 0 35.81925591762864 46.83603965052536 12.575764343698488 0 0 0
3278 66 1 0 36.90432084166479 47.04826033922858 10.642888190877267 0 0 0
4390 88 1 0 1.5572625644877438 49.82773283016898 12.110132509215846 0 0 0
3010 61 1 0 47.8566628136974 49.52208030997244 10.661871194801954 0 0 0
3011 61 1 0 48.81434316503417 49.43637327718141 11.096919491896386 0 0 0
3012 61 1 0 49.74819365658024 49.057616277398914 11.651678432351709 0 0 0
3014 61 1 0 51.525684880875914 47.94999603457894 12.280748661332783 0 0 0
3013 61 1 0 50.62357795098649 48.55277789280499 12.001820247616648 0 0 0
4389 88 1 0 2.152631488942273 50.434497320324766 11.167293950437998 0 0 0
4381 88 1 0 9.921905375356816 51.971191265032424 11.649518782076777 0 0 0
4380 88 1 0 10.883188671684454 51.51537049208103 12.16970044580246 0 0 0
4379 88 1 0 11.845105122065648 51.275124230522906 12.616425707477958 0 0 0
3293 66 1 0 26.526066287600866 51.14921913401874 11.445511591158446 0 0 0
3292 66 1 0 26.83934867988782 51.085056682561 12.49277275545216 0 0 0
916 19 1 0 29.83863628079783 -4.979905337143399 14.422379698151106 0 0 0
1182 24 1 0 46.84803561616818 -6.759766904667235 13.857850047094027 0 0 0
1183 24 1 0 45.95553180150229 -6.740837099364128 13.100664662166116 0 0 0
3688 74 1 0 2.9739099369646604 -4.4043641733830245 13.583742932263913 0 1 0
3689 74 1 0 3.0727962267344977 -4.802359322058732 14.65595727014332 0 1 0
276 6 1 0 9.802839996172528 -3.4793308446842426 14.74629690128804 0 0 0
278 6 1 0 12.072032554665824 -3.9186190592407586 14.797583634856839 0 0 0
277 6 1 0 10.955839158552068 -3.6238799120138094 14.764922922046017 0 0 0
920 19 1 0 26.306094872835732 -3.250540673715434 12.74288744440973 0 0 0
919 19 1 0 27.155741429209947 -3.618047761147309 13.2002987547753 0 0 0
918 19 1 0 28.14136393282635 -4.167162680776451 13.505846217058725 0 0 0
917 19 1 0 28.84131248225562 -4.641171626737847 14.10718335863412 0 0 0
218 5 1 0 35.42772691355244 -2.623998793869771 13.584270330514515 0 0 0
219 5 1 0 35.02722159449059 -2.0989289002134557 14.564775644818697 0 0 0
1129 23 1 0 45.810549383853214 -1.3041614259406196 14.119733981284556 0 0 0
1128 23 1 0 46.06898550389217 -0.815325779532906 13.180569180626318 0 0 0
3822 77 1 0 51.65679965027754 1.3313152265323345 13.525093470236156 -1 0 0
3823 77 1 0 51.12055052741619 0.5545904375567464 14.18230051668127 -1 0 0
3821 77 1 0 -6.588683502634493 1.7606214895558865 12.87000348644664 0 0 0
128 3 1 0 13.238880164319513 2.6464555492934685 13.911776748913903 0 0 0
129 3 1 0 13.488061993171186 3.1040970240697923 12.888885649061901 0 0 0
127 3 1 0 13.107762035958924 2.0954876206282878 14.837969098235885 0 0 0
234 5 1 0 20.919440297517692 2.6305602780827018 12.900395774735458 0 0 0
233 5 1 0 22.048958223934093 2.9165116145962857 13.1808569285584 0 0 0
232 5 1 0 23.042485368756967 3.384626937080726 13.624259658308864 0 0 0
231 5 1 0 24.06275772869323 3.550626667464382 13.893724575846932 0 0 0
230 5 1 0 25.17306030453704 3.730764805506196 14.086900516179044 0 0 0
229 5 1 0 26.055909353324136 3.3347558485377795 14.783085567041423 0 0 0
890 18 1 0 36.22165733772464 3.2494929656227454 12.787342054954768 0 0 0
891 18 1 0 37.13231231432521 3.1163377591729486 13.504539088188059 0 0 0
892 18 1 0 37.96779538249721 2.544139618437005 13.94768369723994 0 0 0
893 18 1 0 38.948832832550124 2.193244675701919 14.31801329946174 0 0 0
894 18 1 0 39.91650250484827 2.0753375613284595 14.72410480214546 0 0 0
4463 90 1 0 -0.8322128813312429 4.282394713176122 12.80888045791902 0 0 0
4462 90 1 0 -1.5685395953044177 4.860793297656404 13.316239199928999 0 0 0
4461 90 1 0 -2.1697304267722624 5.494613686442744 14.09817896059407 0 0 0
264 6 1 0 3.7153426424255667 6.087207540077064 14.407703597456468 0 0 0
1278 26 1 0 45.262054496467385 5.50915019363668 13.080521560210242 0 0 0
4460 90 1 0 -2.4169053121989705 6.405825313457271 14.712675928130082 0 0 0
263 6 1 0 3.9705788814297476 6.308004427420451 13.302040002564802 0 0 0
873 18 1 0 19.617653384896602 7.912793393787537 14.601340372485874 0 0 0
874 18 1 0 20.417892989807346 7.812721872582666 13.810866184335753 0 0 0
876 18 1 0 22.399807462809946 7.583865773601627 12.799613012620007 0 0 0
875 18 1 0 21.459334651909966 7.883727298997747 13.334788498550148 0 0 0
1277 26 1 0 45.81586503793466 6.288486483041575 13.821298421311806 0 0 0
1276 26 1 0 46.158215162229645 7.06327067664663 14.426835169367953 0 0 0
321 7 1 0 33.11281138088528 8.439212199465194 14.869077448540622 0 0 0
2149 43 1 0 38.60165398745714 9.228906426686983 13.03398195334671 0 0 0
2148 43 1 0 39.29644426559966 9.15119360172337 13.829808113268308 0 0 0
2147 43 1 0 40.08545080749133 9.221283505032845 14.644487480862624 0 0 0
3557 72 1 0 16.427577143411302 12.45689158147899 12.961607878844951 0 0 0
3554 72 1 0 19.390901390920916 12.68964692072269 14.485459686092657 0 0 0
3556 72 1 0 17.37970382435262 12.786174971302627 13.32389279073659 0 0 0
3555 72 1 0 18.438024710783044 12.789100905069773 13.95350858268165 0 0 0
624 13 1 0 40.852551033424454 14.348353446734533 13.238855263504352 0 0 0
625 13 1 0 41.15201318327089 13.240834678869989 13.037875167059607 0 0 0
622 13 1 0 39.93804709899546 16.286041621614434 13.73735851845557 0 0 0
623 13 1 0 40.524704227125454 15.335219334075184 13.618232488145022 0 0 0
3877 78 1 0 -2.695443042783234 17.20350819699762 13.537474728499099 0 0 0
3876 78 1 0 -2.9209358300424046 17.227494887516148 14.674197295082458 0 0 0
3648 73 1 0 12.196488064450989 18.913252160392567 13.626714720550048 0 0 0
3649 73 1 0 12.985584608340709 18.400500967468854 14.303995216069518 0 0 0
3650 73 1 0 13.59813676876778 17.633154972131877 14.853531253044272 0 0 0
3937 79 1 0 23.355968652582586 18.407173261104433 14.780557234484359 0 0 0
3936 79 1 0 22.425382876151872 18.987399917084122 14.770500682202956 0 0 0
3938 79 1 0 24.172373961115944 17.589302798665067 14.769719126468598 0 0 0
619 13 1 0 38.27091239386021 18.80317429113237 13.032811313573655 0 0 0
620 13 1 0 38.98203138069542 18.262610875591385 13.519358984249775 0 0 0
621 13 1 0 39.4991254194922 17.320523416433463 14.02641332537669 0 0 0
3647 73 1 0 11.361837325828459 19.629377654982328 13.091699538601809 0 0 0
3935 79 1 0 21.242870231519696 19.369421631321533 14.765505264621678 0 0 0
3928 79 1 0 14.100383474172 22.531477059988 14.795621774026523 0 0 0
3927 79 1 0 13.160965176063756 23.1769491716019 14.827142541566223 0 0 0
590 12 1 0 25.560598119450116 22.45276199122126 12.73096370988727 0 0 0
589 12 1 0 26.369813452717555 23.20605202765232 13.014886740050931 0 0 0
787 16 1 0 32.526167532263 22.214493149388932 13.195842619610362 0 0 0
788 16 1 0 32.76110930224558 21.512327728756148 14.125599443454123 0 0 0
1104 23 1 0 42.127778662983445 22.936014680676873 12.730886524160715 0 0 0
1255 26 1 0 -6.058380659061282 25.44042611846266 13.727587594778669 1 0 0
1256 26 1 0 -6.171733409305797 24.471687122523186 14.343013815804346 1 0 0
3925 79 1 0 11.313279631092078 24.686027804814234 14.492629661855137 0 0 0
3926 79 1 0 12.267086583016798 23.994576046737144 14.703111186096544 0 0 0
3924 79 1 0 10.825070037392521 25.515359856587825 14.03735311362057 0 0 0
587 12 1 0 27.87879437781584 24.92755171309911 13.250573984130273 0 0 0
588 12 1 0 27.217279733794918 24.103456533962213 13.088490158546811 0 0 0
586 12 1 0 28.747956614867412 25.604758074629924 13.114696747758748 0 0 0
1101 23 1 0 39.88106689563486 24.567552439831612 14.381980497926769 0 0 0
1102 23 1 0 40.51616930301861 24.049272328480036 13.759820872916892 0 0 0
1103 23 1 0 41.39898003866327 23.642221549981397 13.265189329604706 0 0 0
1254 26 1 0 -6.202539152266559 26.262680164742576 13.116757151406492 1 0 0
4531 91 1 0 -2.137924424421476 26.7904375070577 12.741885107864965 0 0 0
4532 91 1 0 -2.0128545963035736 27.30384468236099 13.783966088141714 0 0 0
4533 91 1 0 -1.7519791533047049 27.822590716411593 14.868823006109412 0 0 0
3652 74 1 0 3.886525479768792 27.76038367067435 13.284680594977644 0 0 0
3651 74 1 0 4.463418082146371 26.96480652029974 13.589016805030196 0 0 0
3923 79 1 0 10.155462566155968 26.289686552473583 13.710721030666651 0 0 0
3922 79 1 0 9.569654011943818 27.177629730085634 13.367213459445134 0 0 0
585 12 1 0 29.630674795129185 26.315317157037654 13.128168733858294 0 0 0
584 12 1 0 30.706511473099987 26.806018879207606 13.296858291470846 0 0 0
583 12 1 0 31.754495719999884 27.36912492714049 13.264220727905974 0 0 0
582 12 1 0 32.757968081068846 27.948112923737895 13.197004565062802 0 0 0
1333 27 1 0 46.31810673261272 27.991743646150063 13.341372202994203 0 0 0
1331 27 1 0 46.880050305713254 26.011819542796317 14.351764416641414 0 0 0
1332 27 1 0 46.648027240639344 27.026959887985427 13.724448783268418 0 0 0
3654 74 1 0 2.758156128059535 29.679102318818913 13.059840499178712 0 0 0
3653 74 1 0 3.1347348453503803 28.642933814507774 13.123603273191767 0 0 0
3919 79 1 0 8.281214443976765 30.177692559246875 13.948389729688945 0 0 0
3920 79 1 0 8.856610720699079 29.194417921505107 13.676633484978918 0 0 0
3921 79 1 0 9.017893541023001 28.152810022136855 13.487465915147931 0 0 0
581 12 1 0 33.71723557883517 28.355645156491423 13.107998053233883 0 0 0
580 12 1 0 34.62140268468811 28.84294490195733 12.992619405939198 0 0 0
579 12 1 0 35.63706863045027 29.151289514167097 12.828855388535679 0 0 0
578 12 1 0 36.834652411729074 29.208153989687847 13.037348977952153 0 0 0
577 12 1 0 37.918396349856316 29.214980190488056 13.265565920269042 0 0 0
576 12 1 0 39.024228521253725 29.144700105741304 13.543341341447423 0 0 0
575 12 1 0 40.16340221715536 29.118973691077244 13.682038274592722 0 0 0
574 12 1 0 41.227081668245006 28.87223076070474 14.183648911397489 0 0 0
573 12 1 0 42.01415830343232 28.588493716825848 14.78898352413609 0 0 0
1334 27 1 0 45.93927542005596 28.995701732729007 12.872274535643848 0 0 0
3655 74 1 0 2.448346767677115 30.72396445294628 13.105756634322075 0 0 0
3656 74 1 0 2.0271497707312136 31.879204904254753 13.270774406412075 0 0 0
3918 79 1 0 8.20729791315584 31.320524270704116 13.995249617318445 0 0 0
3917 79 1 0 7.9733582374119685 32.364698966317384 14.335879324550628 0 0 0
3548 71 1 0 29.92401376462138 30.964222354490005 14.050604715799752 0 0 0
3547 71 1 0 30.49654733731191 31.340010151708174 13.150574428250634 0 0 0
2936 59 1 0 48.85166117688537 32.12373910982827 13.680726910095343 0 0 0
2935 59 1 0 48.139726226360494 31.824735671357356 14.467231967236634 0 0 0
3180 64 1 0 -5.523629203385818 32.737336590457915 13.21488434020447 1 0 0
3179 64 1 0 -5.937643737461725 33.13377157457032 14.264599026675645 1 0 0
3657 74 1 0 1.6573795681851775 33.025205877245675 13.481837933780776 0 0 0
3658 74 1 0 0.9861604819307578 33.92263968098273 13.294081372250096 0 0 0
3916 79 1 0 7.799723075622437 33.45178374094943 14.533253396463314 0 0 0
447 9 1 0 14.020893927338374 34.53366767283204 14.518213026196234 0 0 0
446 9 1 0 13.145130195731072 33.99003457926201 14.746458699942728 0 0 0
1356 28 1 0 24.10346496366331 33.03527127324726 14.570849035907687 0 0 0
1355 28 1 0 25.14161129455873 33.27969326621432 14.066640067621583 0 0 0
1354 28 1 0 26.076394150541134 33.74121406528322 13.645867088974896 0 0 0
1353 28 1 0 27.061355916527347 34.30079389393121 13.338974645575703 0 0 0
2937 59 1 0 49.235845607559284 32.80208694171954 12.795211477533654 0 0 0
3660 74 1 0 -0.6783263963251832 35.351104531826735 13.00222048202647 0 0 0
3659 74 1 0 0.2312167833449877 34.77082237383781 13.252935867527077 0 0 0
448 9 1 0 14.911217718945906 35.005869667704445 14.188454797321127 0 0 0
449 9 1 0 15.898976417323999 35.6857464374066 14.075416118242895 0 0 0
450 9 1 0 16.791143574508375 36.32162948401239 14.00954934414498 0 0 0
1352 28 1 0 27.959169694389182 34.6878330966941 12.992342442947463 0 0 0
3735 75 1 0 22.28727060970952 38.90610061540728 13.369859630626829 0 0 0
3306 67 1 0 46.95473698195355 38.74082188208399 13.711173109636636 0 0 0
3305 67 1 0 47.79149416225623 38.41542037432809 14.391091428359534 0 0 0
3022 61 1 0 -2.0567093044118523 41.12745936610552 14.843277637954406 1 0 0
3734 75 1 0 22.760432434951486 39.79397067817708 13.990159707166013 0 0 0
3733 75 1 0 23.24393663280888 40.65802222107998 14.592815976576627 0 0 0
4882 98 1 0 27.56854072631004 40.00789961217652 13.314856776792112 0 0 0
4881 98 1 0 27.925275815229714 40.0008777293385 14.40613651145028 0 0 0
826 17 1 0 33.630042490560044 40.31909424673365 13.854280973065531 0 0 0
2921 59 1 0 39.10149993575601 39.80843684370033 14.679980631751175 0 0 0
2920 59 1 0 39.26202324104141 40.62835502810562 13.972095770607948 0 0 0
3307 67 1 0 46.16184243030752 39.12505631304519 12.989098922741745 0 0 0
3021 61 1 0 -2.634323122057723 42.051896199146746 14.394722026871182 1 0 0
3020 61 1 0 -3.18911059212441 43.07558123291558 13.999318162510143 1 0 0
4027 81 1 0 4.0821881901288934 41.8217057714154 12.745934899697808 0 0 0
4028 81 1 0 5.089552075113345 42.09087578991051 12.993848773983665 0 0 0
4029 81 1 0 6.228669727308945 42.41291562529887 13.171250831408198 0 0 0
4030 81 1 0 7.229819836193858 42.36491833858744 13.554760839824961 0 0 0
4031 81 1 0 8.263011032579447 42.212328979261365 14.049833368294427 0 0 0
4032 81 1 0 9.296957404568648 42.03498179258212 14.470424520574035 0 0 0
2918 59 1 0 39.99163296051673 42.53501014455265 12.87272767261686 0 0 0
2917 59 1 0 40.89087570056556 43.27630613622461 12.708799705846443 0 0 0
2919 59 1 0 39.3830638531275 41.55710676614872 13.35205459177692 0 0 0
3019 61 1 0 -3.7025397576248693 44.066649554325096 13.632590378597842 1 0 0
3018 61 1 0 -4.401998562853193 44.90460776760238 13.25903669718501 1 0 0
2911 59 1 0 47.016810582561796 45.06750464238831 13.33987640863547 0 0 0
2912 59 1 0 45.96745459869616 45.460255330710275 13.090744625916537 0 0 0
2909 59 1 0 49.07562699156421 44.369229194767364 13.99190376207072 0 0 0
2910 59 1 0 47.97217391946073 44.63155483448427 13.707126344551456 0 0 0
2908 59 1 0 49.95841284974731 43.87666776562445 14.414920613200815 0 0 0
2907 59 1 0 50.95914126105794 43.59743939362599 14.827726685422835 0 0 0
3016 61 1 0 -5.8387763497880565 46.4969921297398 12.766489262292716 1 0 0
3017 61 1 0 -5.198810255148202 45.58975221274268 13.004254789660797 1 0 0
3707 75 1 0 8.617400036863524 46.66929200973417 13.481840373599141 0 0 0
3708 75 1 0 9.010746652881831 46.715845034834125 14.651112430924323 0 0 0
4901 99 1 0 17.221161637307304 46.65201315911774 13.364225321742229 0 0 0
3332 67 1 0 22.73050401354583 47.27171696254485 13.067319971782876 0 0 0
3333 67 1 0 21.719990008355097 47.564665963496346 13.453048667426886 0 0 0
3282 66 1 0 34.40920682589451 46.73232084854602 14.515845810237492 0 0 0
3281 66 1 0 35.17234614216727 46.84499726582937 13.555941581570721 0 0 0
4391 88 1 0 1.2883700795690922 49.17325329778221 12.959442977995932 0 0 0
4392 88 1 0 1.170516407438432 48.61608093730802 13.91092042337272 0 0 0
4393 88 1 0 0.7939522279399448 48.12195911068004 14.823883840642218 0 0 0
3334 67 1 0 21.00652156855143 47.767635211947166 14.268941512883957 0 0 0
4378 88 1 0 12.526567082754754 50.716115860805566 13.294609859174912 0 0 0
4377 88 1 0 12.975308079491398 50.194340043187694 14.19025691307981 0 0 0
3291 66 1 0 27.089104028534152 50.98017953826702 13.567767413108868 0 0 0
3290 66 1 0 27.563562085523575 50.53437681325562 14.61706177918205 0 0 0
1181 24 1 0 47.689288759979114 52.07939290827617 14.595528964949748 0 -1 0
1697 34 1 0 -5.223940230629623 -5.43283972771349 16.447328460746935 0 1 0
1696 34 1 0 -5.324955167435886 -6.3124531414422425 17.06953160558844 0 1 0
3690 74 1 0 3.3289723450350985 -5.260191881323233 15.711382764216186 0 1 0
3691 74 1 0 3.7267607341702638 -5.889524781423341 16.542151734132823 0 1 0
281 6 1 0 15.005192127122056 -5.062543335022577 15.92483938495076 0 0 0
282 6 1 0 16.068016306807564 -5.463315004446015 16.044874293451894 0 0 0
283 6 1 0 17.21069789425997 -5.638360921967225 16.382685851320048 0 0 0
284 6 1 0 18.328580775435967 -5.702291140907935 16.715619128466482 0 0 0
285 6 1 0 19.4520145583298 -5.456986314205876 16.89943635209439 0 0 0
915 19 1 0 30.85954664690756 -5.260083855313698 14.915219102704521 0 0 0
914 19 1 0 31.937370298401753 -5.660610773205545 14.941058472611411 0 0 0
912 19 1 0 33.89242123681392 -6.203145295604453 15.48239810021772 0 0 0
913 19 1 0 32.89843698908307 -5.741877693114191 15.32652148105374 0 0 0
911 19 1 0 34.636575503383796 -6.732978850729499 15.994819135677819 0 0 0
1179 24 1 0 49.3020965845659 -6.699319052846248 16.31910050195028 0 0 0
1180 24 1 0 48.59242349819251 -6.903975700173872 15.367594737965767 0 0 0
1698 34 1 0 -4.886154966290113 -4.500048133083158 15.910842383985464 0 1 0
1700 34 1 0 -3.992183375267764 -2.8059299283873615 14.977454834844142 0 1 0
1699 34 1 0 -4.402856949554575 -3.5878321084556957 15.477356452375897 0 1 0
275 6 1 0 8.733609165373311 -3.026760525020561 15.013885750317638 0 0 0
280 6 1 0 14.132546400630083 -4.74461996072357 15.329203861527311 0 0 0
279 6 1 0 13.157181935556686 -4.387259713619517 14.967955819431003 0 0 0
1132 23 1 0 44.28198106817213 -2.9098553775795093 16.64720696605553 0 0 0
271 6 1 0 5.525152203990596 -0.500193692469168 16.669840081599258 0 0 0
274 6 1 0 7.778049707531271 -2.527067361552406 15.344436747223261 0 0 0
272 6 1 0 6.180322887723836 -1.3450070119721753 16.325583622536406 0 0 0
273 6 1 0 6.825524682842568 -2.0281694126099827 15.767811941529608 0 0 0
220 5 1 0 34.36460575293138 -1.6119529957656917 15.330417152217327 0 0 0
221 5 1 0 33.58855041571333 -0.9497138860973077 15.74685998889838 0 0 0
1131 23 1 0 44.71985420160802 -2.311938356658156 15.811661954729317 0 0 0
1130 23 1 0 45.31334794523825 -1.8355277620232957 14.903328080885297 0 0 0
270 6 1 0 4.993445552846234 0.5907527516390091 16.713070657901884 0 0 0
269 6 1 0 4.534052624935488 1.5760640860010076 16.734399395478878 0 0 0
125 3 1 0 12.587137114909638 0.762422752328484 16.46320691744986 0 0 0
126 3 1 0 12.844142461738727 1.5365114225841363 15.789585150799242 0 0 0
226 5 1 0 28.524886110464 1.6371102730004505 16.39119779390126 0 0 0
225 5 1 0 29.56101947207653 1.0792013755042815 16.64234921086307 0 0 0
223 5 1 0 31.65684121037255 0.18691112336595114 16.356020489953004 0 0 0
224 5 1 0 30.57858145436486 0.6137891898398091 16.546022178826153 0 0 0
222 5 1 0 32.69835974948669 -0.22710533476043604 16.03312656535187 0 0 0
3826 77 1 0 49.27388543103162 -0.30473421918044186 16.810965328197142 -1 0 0
3825 77 1 0 49.649662178603045 -0.25213494312192347 15.751733460698048 -1 0 0
3824 77 1 0 50.34287070503866 0.08190416702497609 14.930106764617538 -1 0 0
267 6 1 0 3.8746872975288253 3.8022543377821525 16.48573944008068 0 0 0
268 6 1 0 4.144121260462077 2.71134745119751 16.591863528485103 0 0 0
228 5 1 0 26.863347248760974 2.775021237086731 15.46871227771934 0 0 0
227 5 1 0 27.518926725656005 2.2097879327801104 16.075936014257877 0 0 0
895 18 1 0 40.93942054538047 1.9989027691670096 15.179757421422353 0 0 0
896 18 1 0 42.014568908188394 1.978513684658308 15.799277613599958 0 0 0
897 18 1 0 42.86483231144113 1.8239401184765291 16.60424053013785 0 0 0
266 6 1 0 3.7300772508592304 4.8123300622174705 16.112088140419285 0 0 0
265 6 1 0 3.791376414240282 5.6279081307053636 15.368998668278643 0 0 0
325 7 1 0 35.635789082392506 5.470611589483786 16.446014834170647 0 0 0
326 7 1 0 36.29853633133333 4.743055279008933 17.011269124114147 0 0 0
324 7 1 0 34.838773834117326 5.9817662669055665 15.860358481832003 0 0 0
4458 90 1 0 -2.796932964703422 8.096297558653617 16.10558724539505 0 0 0
4459 90 1 0 -2.624424192153016 7.241291377136945 15.41388236248954 0 0 0
872 18 1 0 19.11779931062578 8.298778509217156 15.509051731104089 0 0 0
323 7 1 0 34.1768298230878 6.6378678923216805 15.315623406499242 0 0 0
322 7 1 0 33.78246219587967 7.57344440299372 15.106595973125522 0 0 0
1275 26 1 0 46.034676948587574 7.80991515875104 15.345336406446734 0 0 0
4456 90 1 0 -3.2822638478908157 10.069588122566849 16.832546589875164 0 0 0
4457 90 1 0 -3.088574253196923 9.002360252330076 16.617554532305835 0 0 0
4700 94 1 0 10.518293041211798 8.501591554187339 15.426890234673495 0 0 0
4699 94 1 0 10.981939561303069 9.313502102261896 15.837197573789972 0 0 0
4698 94 1 0 11.430602817088644 10.220254199085998 16.476703465513157 0 0 0
871 18 1 0 18.892967450349595 8.741787279927665 16.523507810934436 0 0 0
317 7 1 0 29.36935710313926 10.169837813782706 16.20556636781061 0 0 0
320 7 1 0 32.30521006546856 9.179216246764279 14.909262302888067 0 0 0
319 7 1 0 31.33669438613598 9.70250512979139 15.02409038675023 0 0 0
318 7 1 0 30.324816709768314 10.026076803306271 15.526121960982104 0 0 0
2146 43 1 0 40.73305714001725 9.554547553206131 15.449365451907402 0 0 0
2145 43 1 0 41.33153118748059 9.774190263522536 16.33155068561966 0 0 0
1274 26 1 0 46.13641225204025 8.467163170060427 16.395911802239546 0 0 0
1273 26 1 0 46.29144124000894 9.43539702130058 17.044459585571033 0 0 0
4454 90 1 0 -3.7905838757032053 12.16395747660609 16.450814692576746 0 0 0
4455 90 1 0 -3.4100180318646514 11.23122880323261 16.779480373537503 0 0 0
4070 82 1 0 3.4693721444050487 10.711503979185473 16.802589058792186 0 0 0
4069 82 1 0 3.984716992592756 11.594479305445274 16.288961732123965 0 0 0
4068 82 1 0 4.73392487356813 12.483464956842438 15.987629645329337 0 0 0
3553 72 1 0 20.372983918200653 12.428335317656456 15.013048457416643 0 0 0
3552 72 1 0 21.279274330740233 12.324668282895505 15.585777824091238 0 0 0
3551 72 1 0 22.008922970921763 12.135919211989224 16.193764914488302 0 0 0
4452 90 1 0 -5.2869748849274725 13.659614329574625 15.768388767934395 0 0 0
4451 90 1 0 -5.842641187823484 14.368308570217682 15.518740525095634 0 0 0
4453 90 1 0 -4.467219876845799 12.960672274451564 16.043023280867164 0 0 0
4067 82 1 0 5.481486138201637 13.240743950115954 15.896454855236565 0 0 0
4066 82 1 0 6.348819933923424 14.014627556902564 15.828126977272902 0 0 0
3944 79 1 0 30.073446007539296 14.492908177562578 16.046769897032156 0 0 0
3945 79 1 0 31.088993510414966 13.92149901003697 16.36874507422023 0 0 0
3946 79 1 0 32.03836977792765 13.426810290615038 16.83155356308392 0 0 0
4065 82 1 0 6.987765264346459 15.031507713265277 15.740800990907548 0 0 0
4064 82 1 0 7.586019163013873 16.041105709325183 15.919427587104975 0 0 0
3939 79 1 0 25.011243288138495 16.924160438150643 14.919221211536547 0 0 0
3940 79 1 0 26.025631913070807 16.497346345556647 15.162568842484877 0 0 0
3941 79 1 0 27.09245561843111 16.131254734707433 15.417633553274957 0 0 0
3942 79 1 0 28.153180615579345 15.732013053355931 15.515783039707948 0 0 0
3943 79 1 0 29.091044994005447 15.13778069642591 15.76104199340728 0 0 0
3875 78 1 0 -3.1166585167733243 17.360836654457124 15.766924511642658 0 0 0
3874 78 1 0 -3.1740973935990295 17.62353105524703 16.79000940710546 0 0 0
4063 82 1 0 7.801836879272336 17.082948090250948 16.097407444000595 0 0 0
4062 82 1 0 7.903837047187479 18.091217208264034 16.51071606012017 0 0 0
4061 82 1 0 7.993621399575304 19.138226168743564 16.958845377617564 0 0 0
1260 26 1 0 -6.506598626257826 20.80440265851836 16.85991451751878 1 0 0
3931 79 1 0 17.259597118906058 21.267498832843387 15.251733363667567 0 0 0
3932 79 1 0 18.260335102488447 20.969110682269175 15.16915168205073 0 0 0
3933 79 1 0 19.389784155450126 20.516846046078683 15.136789345036286 0 0 0
3934 79 1 0 20.37122663404652 19.915089702127617 14.958462394649883 0 0 0
789 16 1 0 32.7455806146119 20.740981500033616 14.947122600006377 0 0 0
790 16 1 0 32.837440569398574 20.01964214512314 15.796119698359107 0 0 0
791 16 1 0 32.88087311468426 19.350274233230735 16.789730269365826 0 0 0
1258 26 1 0 -6.263193330273625 22.556150801362815 15.515813877603435 1 0 0
1259 26 1 0 -6.3656335533020405 21.551757287662227 16.126901058666 1 0 0
1257 26 1 0 -6.242072155607439 23.456062301661234 15.000147142540285 1 0 0
3929 79 1 0 15.188014931627013 22.095564947871978 15.033531453537327 0 0 0
3930 79 1 0 16.1988503975363 21.64182152772555 15.184068627192705 0 0 0
1328 27 1 0 47.417120791419144 23.250256949683372 16.24496425848905 0 0 0
4334 87 1 0 1.3175119110599056 24.529375543586593 17.045174121125555 0 0 0
4336 87 1 0 3.25832037321249 25.646045668189373 16.82420177970047 0 0 0
4335 87 1 0 2.3236229535718795 24.983856299003442 16.85533123095699 0 0 0
1330 27 1 0 47.15836001212523 25.134802655212404 14.994817241565617 0 0 0
1329 27 1 0 47.09285645356732 24.14693699068272 15.579234977682473 0 0 0
571 12 1 0 43.48310571832323 27.662944201618394 16.450207938971047 0 0 0
4534 91 1 0 -1.369235816022881 28.291687256925112 15.85428732040253 0 0 0
4535 91 1 0 -0.9823601801099635 28.958230599373497 16.746238202561837 0 0 0
1364 28 1 0 16.398348687200002 29.019854803869634 16.03221587237759 0 0 0
1365 28 1 0 15.649933751897903 28.55082589617625 16.81158293496587 0 0 0
1363 28 1 0 17.243231606229223 29.53284511704604 15.641957626068436 0 0 0
1362 28 1 0 18.284225596712943 29.913313081041654 15.452999955164444 0 0 0
572 12 1 0 42.87499982705153 28.256047390764188 15.604069970196058 0 0 0
1359 28 1 0 21.300844608199 31.33783839975673 15.111665163974468 0 0 0
1361 28 1 0 19.339085391011498 30.43852015423129 15.301250865889484 0 0 0
1360 28 1 0 20.32933574667203 30.69955545770915 15.2809620688643 0 0 0
1358 28 1 0 22.220225660117197 31.932071447938323 15.112090130677531 0 0 0
3549 71 1 0 29.540810465201243 30.797705477549588 15.199195777005654 0 0 0
3550 71 1 0 29.226115922467333 30.799322408814277 16.133078654481835 0 0 0
2932 59 1 0 45.38682316126893 32.20318972094379 16.521708545414985 0 0 0
2931 59 1 0 44.277961257671905 32.264390163730425 16.878106984184882 0 0 0
2934 59 1 0 47.344247967071716 31.928144304119602 15.361744554725867 0 0 0
2933 59 1 0 46.43259991453081 31.969533003237892 16.02158104591841 0 0 0
3178 64 1 0 -6.253958266336281 33.229073376370856 15.36646469257071 1 0 0
3177 64 1 0 -6.539274025545702 33.60230440790306 16.383846384803974 1 0 0
3915 79 1 0 7.709436672819225 34.449993915356394 14.947527455156806 0 0 0
444 9 1 0 11.870030336301882 32.56777879704395 16.150669145077696 0 0 0
445 9 1 0 12.35457037454436 33.260709296042 15.273395710988234 0 0 0
1357 28 1 0 23.13978654043288 32.68141840403883 15.035772662433446 0 0 0
3914 79 1 0 7.250825924107624 35.4941997770097 15.157961567519967 0 0 0
3913 79 1 0 6.844879862912434 36.49890023656085 15.289022405484749 0 0 0
2925 59 1 0 39.23212938298562 35.90405060025637 17.01514557773107 0 0 0
3026 61 1 0 -1.1823200597471497 37.02428802007051 16.624714835351963 1 0 0
3025 61 1 0 -1.3392063579898734 38.17117213593679 16.520525086550975 1 0 0
3911 79 1 0 6.119233339712421 38.48906914451584 16.210983968341232 0 0 0
3912 79 1 0 6.447517710808359 37.523808225175564 15.801889625926245 0 0 0
2922 59 1 0 38.878983480920006 38.834169477001545 15.298365750960713 0 0 0
2923 59 1 0 38.8433086770139 37.874783905219125 15.816632617542258 0 0 0
2924 59 1 0 38.970268515056866 36.96085615491171 16.507304540017532 0 0 0
3304 67 1 0 48.68040561867963 38.23057196534422 15.032806067321433 0 0 0
3303 67 1 0 49.512889844406786 38.08130786930683 15.690289112372563 0 0 0
3302 67 1 0 50.06634215339741 37.812948818247655 16.597860076998458 0 0 0
3023 61 1 0 -1.6279087737657767 40.12140910045896 15.329228052328022 1 0 0
3024 61 1 0 -1.5502739752316925 39.16649506805771 15.933022303830146 1 0 0
3910 79 1 0 5.825977028568035 39.43089354594576 16.844907910597225 0 0 0
4037 81 1 0 14.275128709439494 40.76238498421703 16.588455457569392 0 0 0
4038 81 1 0 14.939198859428394 40.07570371224218 17.080539133530895 0 0 0
4880 98 1 0 28.325524781080155 40.08005406778357 15.526810670843817 0 0 0
4879 98 1 0 28.363928925704048 40.260066189399225 16.70679817582161 0 0 0
828 17 1 0 33.262631174732796 40.49727017735009 15.997347712161574 0 0 0
827 17 1 0 33.45964917722885 40.357367506714425 14.964183213105203 0 0 0
2904 59 1 0 -6.269140279673665 41.47380509470239 16.602296123703763 1 0 0
2905 59 1 0 -6.871503914945638 42.10120188065699 15.969967305231336 1 0 0
4033 81 1 0 10.15922531906517 41.747744163959794 14.939464393584338 0 0 0
4035 81 1 0 12.344751956595793 41.601806944119055 15.68673313431534 0 0 0
4034 81 1 0 11.174641891445473 41.548492044813145 15.447292639571348 0 0 0
4036 81 1 0 13.45181500457274 41.34687451103635 16.150354527189727 0 0 0
3732 75 1 0 23.134766781649127 41.702632087077866 14.935796651366605 0 0 0
3731 75 1 0 23.260269944621868 42.67095485158472 15.531565423280544 0 0 0
2906 59 1 0 51.661177726724354 42.767761743937456 15.31951551723988 0 0 0
3730 75 1 0 23.300068804378146 43.37933180342941 16.39392324872677 0 0 0
4395 88 1 0 -0.14014555570384565 47.06807335156877 16.623779136788727 0 0 0
4394 88 1 0 0.40228734666353755 47.55939953094192 15.666578466109193 0 0 0
3709 75 1 0 9.116911453991083 46.886180208770575 15.700346818045787 0 0 0
3710 75 1 0 9.223272356955446 46.89869504088458 16.848477628009682 0 0 0
3337 67 1 0 19.08673333360179 47.254010627164355 16.982847748387726 0 0 0
3336 67 1 0 19.942435989454907 47.657830651607725 16.250562113468728 0 0 0
3285 66 1 0 31.597356388175942 47.45183190136034 16.225359233024996 0 0 0
3283 66 1 0 33.56321694835558 46.852071503025115 15.298879422082914 0 0 0
3284 66 1 0 32.58790315148253 47.05164727442962 15.941495311508609 0 0 0
901 19 1 0 43.13646143286402 45.95763248625279 16.289742263670146 0 -1 0
902 19 1 0 42.63686853859367 46.83291711428868 16.148965428545157 0 -1 0
4376 88 1 0 13.308334562238382 49.88410528639606 15.213330956729813 0 0 0
4375 88 1 0 13.739370254762674 49.68940050321093 16.175691917505663 0 0 0
3335 67 1 0 20.5625915285196 47.809904760432474 15.291385414886543 0 0 0
3288 66 1 0 28.897391002085723 49.570048536816714 16.065783393027385 0 0 0
3287 66 1 0 29.78248108349294 48.8791047478709 16.08330109256034 0 0 0
3286 66 1 0 30.655974940141956 48.2291753263797 16.261404374491672 0 0 0
905 19 1 0 40.42203537300774 49.35734269690467 16.212415974856867 0 -1 0
903 19 1 0 42.16747900285386 47.81819586034772 16.069733234735843 0 -1 0
904 19 1 0 41.38775916719074 48.66777208314828 16.191721173572457 0 -1 0
2900 58 1 0 47.698123640892504 48.86926721322688 16.888728585864 0 0 0
3289 66 1 0 28.114910916993864 49.96624566970165 15.380293189312583 0 0 0
910 19 1 0 35.604608114540206 51.92304849215446 16.489717101972285 0 -1 0
909 19 1 0 36.49084524812209 51.420463328223676 16.688488791261133 0 -1 0
908 19 1 0 37.575583449775685 51.10254012299917 16.69502622425614 0 -1 0
907 19 1 0 38.652365207742584 50.57399371728941 16.442091620835505 0 -1 0
906 19 1 0 39.570628916330186 50.069880140092074 16.259284057897666 0 -1 0
3693 74 1 0 4.670077165677558 -6.766203493408091 18.30774748526303 0 1 0
3692 74 1 0 4.240995549955406 -6.3352681879293335 17.368803347342297 0 1 0
286 6 1 0 20.475532296324634 -5.277934120442689 17.442246725070945 0 0 0
287 6 1 0 21.585946305117883 -5.175698233035829 17.81022050225811 0 0 0
288 6 1 0 22.744397000163712 -5.343454271827176 17.951638608755367 0 0 0
289 6 1 0 23.832959100514007 -5.568126721176871 18.01284610374234 0 0 0
290 6 1 0 24.950160507159183 -5.520410843948791 18.0785524585124 0 0 0
291 6 1 0 26.080007764162364 -5.7596780813866015 18.336223856932858 0 0 0
292 6 1 0 27.15080222418935 -6.343548708348874 18.50414481727406 0 0 0
293 6 1 0 28.15753250999011 -6.748529088652009 18.87048011385669 0 0 0
1136 23 1 0 41.33335473264634 -5.315995404973653 19.169029291701936 0 0 0
1178 24 1 0 49.3245718973426 -6.149054662340956 17.27888624300862 0 0 0
1177 24 1 0 49.26379630338041 -5.687393957326143 18.305431086088102 0 0 0
1134 23 1 0 42.84109337471559 -3.8705996772343343 18.09979281933655 0 0 0
1135 23 1 0 42.079725564090914 -4.620703359395399 18.640248572000306 0 0 0
1133 23 1 0 43.51196779121727 -3.3356077710156926 17.514330226600812 0 0 0
122 3 1 0 11.609432340598117 -1.4890247181332399 18.705940541002192 0 0 0
123 3 1 0 12.031786414120436 -0.6391362569560077 18.037386765187925 0 0 0
4715 95 1 0 20.693820682442254 -0.6400733594765319 18.481357709639617 0 0 0
4714 95 1 0 19.838703715491754 -1.4602429001096753 18.807009454730533 0 0 0
3827 77 1 0 48.9319371594957 -0.5309849418613747 17.881553326344374 -1 0 0
3828 77 1 0 48.37113615853783 -0.7610262679089749 18.772979463054284 -1 0 0
124 3 1 0 12.143290324295826 0.027602027999858045 17.263129184850417 0 0 0
4716 95 1 0 21.126745157103134 0.45279853780349344 18.13026900987552 0 0 0
4717 95 1 0 21.338367580237215 1.497882644620851 18.02326024017867 0 0 0
3851 78 1 0 -6.959641421258958 2.868443157571294 18.330944463481202 0 0 0
3852 78 1 0 -6.612596961781762 3.5904720706388757 19.01832410353894 0 0 0
4719 95 1 0 21.24833259798776 3.7577010306960688 18.50809149433099 0 0 0
4718 95 1 0 21.468885737184287 2.5806648141658353 18.224134183334357 0 0 0
327 7 1 0 36.75304409798664 3.9004168588546886 17.73305225496055 0 0 0
328 7 1 0 36.94932980422626 2.891950192279205 18.15219459478924 0 0 0
329 7 1 0 37.43969050995135 2.0724816101792074 18.775014904046458 0 0 0
898 18 1 0 43.54809138622454 2.049186419710165 17.398889926939933 0 0 0
899 18 1 0 44.46437365186018 2.158709438363192 18.052503210193958 0 0 0
900 18 1 0 45.16644117499719 2.0915618626542107 18.776447912589596 0 0 0
4076 82 1 0 0.7439126547641242 5.699627428783107 19.231247232744884 0 0 0
4720 95 1 0 21.205766784834964 4.7353225466361755 18.85164549066388 0 0 0
4721 95 1 0 21.069677764087448 5.776728106191568 19.186006920114284 0 0 0
4074 82 1 0 0.9068699623140148 7.373141139294095 17.986683948248622 0 0 0
4075 82 1 0 0.8778116647199741 6.2995751637051995 18.373984959280854 0 0 0
4073 82 1 0 1.2557408596188442 8.411224095696559 17.646602501890094 0 0 0
4071 82 1 0 2.583155502634676 10.092532477721683 17.21144311575964 0 0 0
4072 82 1 0 1.8706341394175834 9.287325657182512 17.490737030659936 0 0 0
870 18 1 0 18.657728434245595 9.034951107982048 17.590917744952183 0 0 0
869 18 1 0 18.767503915859745 9.820501193638833 18.296123270569744 0 0 0
868 18 1 0 18.847116374506385 10.485926973750702 19.109255786812646 0 0 0
314 7 1 0 27.15937362827593 8.86839644014335 18.61759963308195 0 0 0
315 7 1 0 27.8374088820689 9.54066397971715 17.874328336232246 0 0 0
316 7 1 0 28.645145183396004 9.954576012298032 17.140191121148263 0 0 0
2144 43 1 0 41.91107746964436 9.704503261770743 17.242334456546708 0 0 0
2143 43 1 0 42.40253441080509 9.66461443151257 18.338677779297388 0 0 0
1272 26 1 0 46.54064561942731 10.325388719597184 17.655722600361177 0 0 0
4697 94 1 0 11.831822561292359 10.910575141725863 17.255532709865086 0 0 0
4696 94 1 0 11.932276898353214 11.957951817284815 17.867353276723463 0 0 0
3948 79 1 0 33.85521933670624 12.495461012407503 17.87107781504814 0 0 0
3949 79 1 0 34.80133599757364 12.018608752409518 17.781562414882835 0 0 0
3950 79 1 0 35.53534309248847 11.412790897638681 17.858518630187614 0 0 0
1271 26 1 0 46.9251507015368 11.200185588626272 18.15636824171737 0 0 0
1270 26 1 0 47.541280804425 12.055943976856078 18.52760091907051 0 0 0
1269 26 1 0 48.25987415194145 12.57498610179574 19.033077881449866 0 0 0
4695 94 1 0 11.896052333781258 12.905763168710328 18.335122871888746 0 0 0
4694 94 1 0 11.854857783697609 13.910929736809253 19.04468708217558 0 0 0
3947 79 1 0 32.935155605020036 13.039151250633418 17.27099295184106 0 0 0
401 9 1 0 1.7067325772937514 16.217020791634276 17.722010179233063 0 0 0
402 9 1 0 1.8691004730810665 15.66703159467733 18.56269622066376 0 0 0
794 16 1 0 32.385592633085466 16.638509656919464 18.825833341081367 0 0 0
1266 26 1 0 50.39976913795277 15.106727350893008 18.990764151662518 0 0 0
1265 26 1 0 51.17496864870945 15.909645596565484 18.84516677707883 0 0 0
1264 26 1 0 51.55742065307264 16.82772957643275 18.523490631377147 0 0 0
3873 78 1 0 -3.0666787089770606 17.779120463104505 17.943483633049308 0 0 0
3872 78 1 0 -2.888525691307506 17.828696379989957 19.072458353018355 0 0 0
525 11 1 0 16.517375643993926 18.052396090505145 19.117541238586178 0 0 0
527 11 1 0 18.68871032792052 17.66488496491362 19.00158483489386 0 0 0
526 11 1 0 17.686069719180097 17.88088371606478 19.014365447968796 0 0 0
528 11 1 0 19.732111436870323 17.49815299087312 18.730696016006434 0 0 0
529 11 1 0 20.85731883598418 17.68693525226031 18.85380328710465 0 0 0
530 11 1 0 22.05337320472258 17.86250808694342 19.011315361255292 0 0 0
531 11 1 0 23.0925989530988 18.34716652157784 19.070714637404194 0 0 0
532 11 1 0 24.198313498987133 18.57734778594071 19.139005837204472 0 0 0
792 16 1 0 32.776768895148464 18.45904686619816 17.427347225130386 0 0 0
793 16 1 0 32.64701513741459 17.47893779665125 18.098650349631345 0 0 0
1262 26 1 0 52.04546662200902 18.983296900151466 17.961823389243854 0 0 0
1263 26 1 0 51.814605603505555 17.89630852382684 18.28692004052028 0 0 0
1261 26 1 0 -6.599842996242427 19.961441181225943 17.57421887503344 1 0 0
4060 82 1 0 7.805470050331256 20.125083111463315 17.414751434974708 0 0 0
4059 82 1 0 7.399751028735554 21.083327719698076 17.98120230490229 0 0 0
550 11 1 0 42.48454270973161 20.489617680236407 17.4958516355034 0 0 0
549 11 1 0 41.89139414387121 21.009378251174255 18.08790343237863 0 0 0
4331 87 1 0 -1.3799918171532422 23.362357698996238 18.61682492212253 0 0 0
4058 82 1 0 6.986206841637297 22.031973873145155 18.42143826714634 0 0 0
4057 82 1 0 6.76401754245655 22.95929426484543 18.925512860858838 0 0 0
548 11 1 0 41.0083199441266 21.463587718133702 18.678626901626767 0 0 0
547 11 1 0 40.13746690933539 21.997920978315115 19.22686226355105 0 0 0
1325 27 1 0 46.675641593874616 21.507471856515895 19.065249766272334 0 0 0
1327 27 1 0 47.3014315881228 22.50102061266396 17.098624063783678 0 0 0
1326 27 1 0 47.091254768793114 21.940461313006896 18.055613389667258 0 0 0
4332 87 1 0 -0.5950565182047519 23.7546052130779 17.890831505025023 0 0 0
4333 87 1 0 0.3309597104073342 24.184600670964873 17.475667626883908 0 0 0
1369 28 1 0 16.461651151525345 24.82675203919174 19.05694134855155 0 0 0
1368 28 1 0 15.757952716037416 25.641353164643146 18.61115391849596 0 0 0
4337 87 1 0 3.9773021275662805 26.466871703788375 17.0858713868313 0 0 0
4338 87 1 0 4.582027170099404 27.476831688016627 17.319281882623702 0 0 0
1366 28 1 0 15.442533669973276 27.615570489770278 17.62501921748296 0 0 0
1367 28 1 0 15.518474186602814 26.61706225879563 18.06212230360003 0 0 0
569 12 1 0 44.50184634368647 26.723696813009397 18.205629183153974 0 0 0
570 12 1 0 43.99212948510683 27.21402054001618 17.311455216751593 0 0 0
568 12 1 0 44.626564622513825 26.470358848522995 19.22168018600471 0 0 0
4536 91 1 0 -0.2157727682639263 29.603877846037978 17.273447639104955 0 0 0
4537 91 1 0 0.09619992268931099 30.190996578922324 18.225382297135177 0 0 0
4339 87 1 0 5.164855357569089 28.498173242720373 17.64107502212654 0 0 0
4340 87 1 0 5.591678382227865 29.597013514557695 17.647939111394916 0 0 0
3031 61 1 0 -3.2609915010899364 32.27014072581689 18.136951193706697 1 0 0
3032 61 1 0 -3.796012326132879 31.48876543295836 18.57283547886 1 0 0
3033 61 1 0 -4.417852421573179 30.882205634252156 19.162248353800283 1 0 0
4538 91 1 0 0.4892110821495708 31.02463955100154 18.858445948442586 0 0 0
4341 87 1 0 5.851070188195729 30.77925568174665 17.616277933478155 0 0 0
4342 87 1 0 5.682583519364441 31.937970587694462 17.582589398688807 0 0 0
443 9 1 0 11.590284959407809 31.944247023909583 17.08138686708611 0 0 0
442 9 1 0 11.529556588238783 31.5277387819812 18.192229976102116 0 0 0
441 9 1 0 11.217424372796357 31.155875378801376 19.21856014803985 0 0 0
3176 64 1 0 -6.90385521902471 33.76195138215828 17.442071825993754 1 0 0
3175 64 1 0 -6.968455565711778 33.867781689052485 18.46634503703718 1 0 0
3030 61 1 0 -2.5949017674716393 33.109515593675496 17.74297113637473 1 0 0
3029 61 1 0 -2.06779570005714 34.00015627331554 17.549773752442565 1 0 0
4343 87 1 0 5.7096980992890325 32.90742584603228 17.936421063773743 0 0 0
4344 87 1 0 5.373385888450637 33.82916398192857 18.652782667840693 0 0 0
4044 81 1 0 17.286544560502744 34.28935418365325 18.81431353605231 0 0 0
4045 81 1 0 17.533159980848957 33.346443036779554 19.17798965603901 0 0 0
1758 36 1 0 23.71220637516521 32.87301448388738 19.18772715556035 0 0 0
1757 36 1 0 23.916787339091442 33.899305441972565 18.80184986565399 0 0 0
2928 59 1 0 41.06037137307513 33.458619559087936 17.73669460801288 0 0 0
2927 59 1 0 40.27134087492403 34.18938739139633 17.790751819169316 0 0 0
2929 59 1 0 42.12236893219238 32.963545996022276 17.552001900651888 0 0 0
2930 59 1 0 43.2856548325631 32.53470703996793 17.29171331638828 0 0 0
3027 61 1 0 -1.3476833675115685 36.06029634395095 17.182862342106937 1 0 0
3028 61 1 0 -1.688974471515115 35.07602650784728 17.549686722831822 1 0 0
4042 81 1 0 16.579333852587634 36.25424782981258 17.922321831506036 0 0 0
4043 81 1 0 16.77765097232248 35.18224863121993 18.27418873939979 0 0 0
1755 36 1 0 24.05005970916959 36.06567578036364 18.74615528573257 0 0 0
1756 36 1 0 24.070726458120323 34.94911058187064 18.713944014919505 0 0 0
2926 59 1 0 39.60933084908424 35.06161491162516 17.42913834683037 0 0 0
2901 59 1 0 -4.893334287136151 38.73359824324178 17.567665319916426 1 0 0
4041 81 1 0 16.333748484545243 37.302210406255114 17.724483694659362 0 0 0
4040 81 1 0 16.062449185528966 38.34520070946289 17.556927554194115 0 0 0
1754 36 1 0 23.57590808328173 37.05912463443958 18.805885409330777 0 0 0
1753 36 1 0 23.272299437278427 38.05595576627713 19.081512108896735 0 0 0
1572 32 1 0 42.92563035912013 38.065520041606504 19.045792893066803 0 0 0
1574 32 1 0 44.99156024454315 38.85152219685181 18.718935791555396 0 0 0
1573 32 1 0 43.91504843743128 38.4061514147572 18.54374151039555 0 0 0
3301 67 1 0 50.450214677200016 37.41356259866053 17.37368531634514 0 0 0
2903 59 1 0 -5.833029510202225 40.60633108878867 17.134874541044734 1 0 0
2902 59 1 0 -5.294166185792845 39.65867918935329 17.52040629882144 1 0 0
3909 79 1 0 5.650633969365163 40.31589613985197 17.50740441100484 0 0 0
4039 81 1 0 15.510834836321107 39.217384218414836 17.23479753102661 0 0 0
4878 98 1 0 28.191533854582076 40.52547368899802 17.807059962894822 0 0 0
4877 98 1 0 28.12893491366446 41.0248034814485 18.889278902690936 0 0 0
829 17 1 0 32.91759727295164 40.29555214635739 17.083763339958924 0 0 0
830 17 1 0 32.653632672098354 39.98975258976825 18.145641426562197 0 0 0
831 17 1 0 32.44530576122753 39.70888408044364 19.136912367682573 0 0 0
3907 79 1 0 4.976690194788242 42.487107601098025 18.10931362155979 0 0 0
3908 79 1 0 5.30948134237814 41.37667432580845 17.83278799896651 0 0 0
1429 29 1 0 37.892469823848295 43.084705889522795 19.09336121943448 0 0 0
4400 88 1 0 -3.2160845953600785 43.55169370474069 19.11441115505365 0 0 0
4399 88 1 0 -2.9330715396002334 44.319436147647764 18.506403174221223 0 0 0
4398 88 1 0 -2.1930700483505468 44.92578620415462 17.893777176726097 0 0 0
3905 79 1 0 3.908896720873794 44.13759669629039 19.179290434392303 0 0 0
3906 79 1 0 4.54009280587498 43.36078296285571 18.673133113513565 0 0 0
3341 67 1 0 15.743374268116408 45.33850699729061 19.2114025430866 0 0 0
3729 75 1 0 23.088662704093533 44.17922964556106 17.195123590354072 0 0 0
3728 75 1 0 22.917167006065853 44.85561044783307 18.009017757780214 0 0 0
3727 75 1 0 22.53180707583853 45.308524889926574 18.96438819684268 0 0 0
1426 29 1 0 35.026416871236336 44.56616937644134 19.11101269862202 0 0 0
1427 29 1 0 36.0229195316545 43.97398057241416 18.878407452183083 0 0 0
1428 29 1 0 36.88367872175845 43.35491808946267 18.905914141240938 0 0 0
4397 88 1 0 -1.6221781859463023 45.69785628047037 17.46648791116342 0 0 0
4396 88 1 0 -0.8239567496259224 46.4474494652338 17.189211838671582 0 0 0
3711 75 1 0 9.412359788594602 46.98598294312601 17.991967394409407 0 0 0
3712 75 1 0 9.695773908391823 46.69502164819478 18.97806624045069 0 0 0
3340 67 1 0 16.520668974436635 46.06416213319154 18.739508356838055 0 0 0
3339 67 1 0 17.328082315271473 46.50405794330181 18.11583634303299 0 0 0
3338 67 1 0 18.248331075922096 46.75596988447514 17.503093237859794 0 0 0
4374 88 1 0 13.965812028532568 49.80546016470347 17.214716898884216 0 0 0
2899 58 1 0 47.135077720438495 49.1003645842689 17.759367274298782 0 0 0
2898 58 1 0 46.79556337842397 48.910635174777006 18.78735796838746 0 0 0
1695 34 1 0 -5.267211312130401 51.95506503425371 17.810911077068464 0 0 0
1694 34 1 0 -5.075687078684863 51.13763080022991 18.596835802853718 0 0 0
4373 88 1 0 14.001760908755903 49.93218114187435 18.327630657563542 0 0 0
294 6 1 0 29.183519081184482 52.01925084003367 19.228917313981103 0 -1 0
1138 23 1 0 40.241395584676326 -6.261764394232106 20.737228001030566 0 0 0
1137 23 1 0 40.70764816869324 -5.61946863378702 19.949669630635583 0 0 0
1176 24 1 0 49.29116773852039 -5.465360112145705 19.457077811589222 0 0 0
1175 24 1 0 49.18758277613168 -5.2386546831729275 20.534290479451023 0 0 0
4114 83 1 0 -5.014717309513625 -4.807238451603952 20.953595759636176 0 0 0
4115 83 1 0 -4.536302486400998 -4.154341365791845 20.243505883777743 0 0 0
4116 83 1 0 -3.9300074831266927 -3.2893827115193233 19.8625586197842 0 0 0
120 3 1 0 11.28411462116991 -3.0164869380100794 20.237246835703022 0 0 0
119 3 1 0 11.02102680975071 -3.754587836011322 20.99169070470571 0 0 0
4117 83 1 0 -3.314362056789683 -2.4206935486136425 19.893173105904363 0 0 0
4119 83 1 0 -1.4370684820793598 -1.183830071814761 20.131103272675304 0 0 0
4118 83 1 0 -2.315535991416367 -1.8264786174783298 20.04910186936232 0 0 0
4120 83 1 0 -0.4392735803408889 -1.1312791062120977 20.575413417867395 0 0 0
4121 83 1 0 0.555818901676398 -1.1029409151083651 21.32881915679742 0 0 0
121 3 1 0 11.176867048196149 -2.273199957615388 19.446558455302604 0 0 0
4710 95 1 0 16.124453725488 -1.1647783591701062 20.619947939511555 0 0 0
4711 95 1 0 17.062419553681522 -1.690225073041498 20.32076423521804 0 0 0
4712 95 1 0 18.059307513910486 -1.9147193027461962 20.033200296518128 0 0 0
4713 95 1 0 18.994072132238134 -1.929182524062607 19.48339806147965 0 0 0
356 8 1 0 26.118451653808936 -1.3764756774867934 20.998805872584427 0 0 0
355 8 1 0 27.049532970721998 -0.7242907266063798 20.887733257820287 0 0 0
3829 77 1 0 48.36805939368541 -0.705265808000911 19.965198367313203 -1 0 0
3830 77 1 0 48.386447014402016 -0.6475652440326009 21.044606126567043 -1 0 0
4707 95 1 0 14.025209556049537 1.3774715669139346 20.818325910834957 0 0 0
4708 95 1 0 14.646216510909985 0.4894249597208089 20.960992496143266 0 0 0
4709 95 1 0 15.261040066516125 -0.4248080381029202 20.9725792721688 0 0 0
354 8 1 0 28.006315953749816 -0.01917963430976493 20.844939192458554 0 0 0
353 8 1 0 28.903644980749124 0.779384378525058 20.799898744120387 0 0 0
352 8 1 0 29.645369118102064 1.6159211352535454 20.747775043205984 0 0 0
332 7 1 0 37.02864355539989 -0.015434790574345294 21.301702732906293 0 0 0
330 7 1 0 37.63949340632158 1.3487969504789528 19.509853442201194 0 0 0
331 7 1 0 37.32927204168466 0.6254597298077342 20.403672218717045 0 0 0
4079 82 1 0 -0.7443213657873355 3.490481429840127 21.254345718802252 0 0 0
4706 95 1 0 13.637139092619627 2.379781634137298 20.696332027585008 0 0 0
4705 95 1 0 13.137007385432103 3.39038498971267 20.657862801340247 0 0 0
351 8 1 0 30.404201334637285 2.259057548466009 20.864286695417338 0 0 0
3853 78 1 0 -6.3931681195448755 4.304668600054458 19.89353897845202 0 0 0
3854 78 1 0 -5.78018501696451 4.797119815666188 20.64182798965124 0 0 0
4078 82 1 0 -0.17742343245753 4.259227535219586 20.616697021946493 0 0 0
4077 82 1 0 0.219760621141802 5.095755255162702 19.981729169006172 0 0 0
4703 95 1 0 12.28724722021106 5.477327839842841 20.48925663329925 0 0 0
4704 95 1 0 12.764119411039708 4.432978549055419 20.666574202091702 0 0 0
310 7 1 0 25.179119279960485 5.579839513690203 20.742934721847067 0 0 0
309 7 1 0 24.785707319019714 4.7714343717128145 21.42828993593681 0 0 0
2673 54 1 0 43.85794978843839 5.2604847774153 20.90469547635391 0 0 0
2674 54 1 0 44.71878809324331 5.687847675103686 20.48427984913086 0 0 0
4701 95 1 0 11.439949917552097 7.332745098003679 20.381435640563332 0 0 0
4702 95 1 0 11.800568806725886 6.437969094937651 20.595376330299786 0 0 0
4722 95 1 0 21.041367861793283 6.658049412423481 19.90811204988116 0 0 0
4723 95 1 0 21.327716813997398 7.3079136514677705 20.762490807841065 0 0 0
311 7 1 0 25.562101693869934 6.423937055151988 20.24765621689465 0 0 0
312 7 1 0 25.9206995619045 7.392644919647676 19.77416366534259 0 0 0
313 7 1 0 26.498126728981124 8.318266810971949 19.323862443407492 0 0 0
2675 54 1 0 45.763138640441866 6.1813419738822795 20.0963532968644 0 0 0
2676 54 1 0 46.750033883143146 6.546853470546645 19.980613490506855 0 0 0
2677 54 1 0 47.69256033718195 6.896964123928329 20.035892364757014 0 0 0
2678 54 1 0 48.515859946652164 7.497526150231178 20.302056472261427 0 0 0
2679 54 1 0 49.23307031345689 8.277327808587977 20.747215793301187 0 0 0
2142 43 1 0 43.00359615924494 9.75926383680892 19.332316509548296 0 0 0
2141 43 1 0 43.484896507806226 9.5946094150311 20.247516337879034 0 0 0
2140 43 1 0 43.649584952287206 9.565092405525325 21.3238308389348 0 0 0
2680 54 1 0 49.778882649160856 9.088881260321905 21.11544683867641 0 0 0
867 18 1 0 19.12471782471533 11.143157454653185 20.05907052020524 0 0 0
866 18 1 0 19.650152050750552 11.90796581146367 20.632445126026397 0 0 0
404 9 1 0 1.9002584791336177 14.152941024715364 20.255163867254925 0 0 0
405 9 1 0 2.471262607032403 13.565550148856374 20.9882045532423 0 0 0
4693 94 1 0 12.016403181578625 14.76629087339958 19.916562733767154 0 0 0
865 18 1 0 20.260261513851813 12.72990120926072 21.078096488190543 0 0 0
1301 27 1 0 26.216685676694397 13.045493629456846 20.29197536140728 0 0 0
1302 27 1 0 26.56213815740899 13.648120455522848 21.010356102428982 0 0 0
1268 26 1 0 49.17005641386762 13.167787833256812 19.339226325580384 0 0 0
1267 26 1 0 49.82424356805889 14.201877231568576 19.355511290165502 0 0 0
403 9 1 0 1.8095346789093436 14.971121186904947 19.400939489585205 0 0 0
4692 94 1 0 12.01909040460396 15.482455644730356 20.769564635952204 0 0 0
795 16 1 0 32.23615895603203 15.917576637813994 19.722108576479513 0 0 0
796 16 1 0 32.221287978388574 15.669861039649716 20.759588441314683 0 0 0
3870 78 1 0 -2.7770436433069277 18.046359324462678 21.37776576229496 0 0 0
3871 78 1 0 -2.6391838361618114 17.944627432796487 20.162871676561256 0 0 0
523 11 1 0 14.55529220308955 19.17788388515535 19.351538561512296 0 0 0
524 11 1 0 15.4386345485536 18.55842294289913 19.274561879668465 0 0 0
533 11 1 0 25.290001952782603 18.99890244411814 19.300504558279375 0 0 0
534 11 1 0 26.442593986545543 19.233577602523756 19.5422062436393 0 0 0
520 11 1 0 12.067166975317953 20.67760121634785 20.805536969192 0 0 0
521 11 1 0 12.911424142177903 20.41722469012793 20.208107360439158 0 0 0
522 11 1 0 13.852422830283205 19.91721332246695 19.63356269653917 0 0 0
1374 28 1 0 20.26608671953163 21.300622383343413 20.55921974912162 0 0 0
1375 28 1 0 21.239971966763946 21.337695620635188 20.79809086556684 0 0 0
535 11 1 0 27.478325203438764 19.517934387760366 19.786946493119814 0 0 0
536 11 1 0 28.36555569273285 20.191611463049846 19.737532008219468 0 0 0
537 11 1 0 29.338310510542 20.743606466148506 19.871371187617214 0 0 0
538 11 1 0 30.394874093795753 21.05657690360951 20.064571299788323 0 0 0
539 11 1 0 31.501630647262026 21.23195034473491 20.347620809988808 0 0 0
1323 27 1 0 45.10371774663606 20.44883242526658 20.42768269328245 0 0 0
1322 27 1 0 44.37143218384842 20.454205681114875 21.3677050688495 0 0 0
1324 27 1 0 45.87843504307486 20.950142237769633 19.762285338107656 0 0 0
4328 87 1 0 -3.631259637604999 23.145113248765927 21.17864796753652 0 0 0
4329 87 1 0 -2.8501631759256716 23.153300611904783 20.316984595871205 0 0 0
4330 87 1 0 -2.0175177065196026 23.243621590604988 19.45780423993253 0 0 0
1371 28 1 0 17.429878016209216 22.976246819248296 19.60073803098341 0 0 0
1372 28 1 0 18.29103080031839 22.237599440720988 19.800771687208833 0 0 0
1373 28 1 0 19.227175324977598 21.612304126365363 20.21057258169812 0 0 0
1376 28 1 0 22.28989459112689 21.765882074557712 21.00980875151297 0 0 0
1377 28 1 0 23.180927470585168 22.562041884167293 20.89623610276251 0 0 0
1378 28 1 0 24.060250134735057 23.21802797202677 20.82343925731709 0 0 0
540 11 1 0 32.65410287719811 21.47423130359038 20.338109054396448 0 0 0
541 11 1 0 33.675802902410496 21.867801688614126 20.34200306031372 0 0 0
542 11 1 0 34.70764984592963 22.49871087905452 20.1532980653041 0 0 0
543 11 1 0 35.81802228268566 22.676549731134404 20.0016132387003 0 0 0
544 11 1 0 37.00103224771585 22.65755176420605 19.956799397090062 0 0 0
545 11 1 0 38.12359942142667 22.540331278002625 19.681221433071133 0 0 0
546 11 1 0 39.117455227666746 22.198563931747557 19.46086822541665 0 0 0
4054 82 1 0 5.94077889416669 25.55193738681905 21.014295437935598 0 0 0
4056 82 1 0 6.5252499140642914 23.902214988177693 19.44736310399242 0 0 0
4055 82 1 0 6.212026965035123 24.656502815210825 20.245450712381757 0 0 0
1370 28 1 0 16.88344021621725 23.928755081757235 19.44779732257426 0 0 0
1379 28 1 0 25.055309076536926 23.767398434205077 20.562533303792144 0 0 0
1380 28 1 0 25.926074446399912 24.637397522877 20.39481415382387 0 0 0
1381 28 1 0 26.664631763199417 25.593426753897305 20.30264581645442 0 0 0
566 12 1 0 44.14148307020342 25.66691873588375 21.309683407290457 0 0 0
1382 28 1 0 27.345899474008295 26.520002194971074 20.164975267889687 0 0 0
1383 28 1 0 27.73895993315627 27.575450295858182 20.006200380837814 0 0 0
567 12 1 0 44.35780334694255 26.128261856580526 20.275731009707545 0 0 0
439 9 1 0 10.385819295494414 29.92679760506 20.93032240065355 0 0 0
4049 81 1 0 19.429914293904393 29.652120279094152 20.598605631719234 0 0 0
4050 81 1 0 19.701351405168367 28.746195419800607 20.853525601850034 0 0 0
1761 36 1 0 23.67907109918921 29.675772660761606 20.209558410889766 0 0 0
1762 36 1 0 23.804071553079243 28.73707697113409 20.953686445653517 0 0 0
1384 28 1 0 28.033027504710056 28.668893115484103 19.775214800426994 0 0 0
1385 28 1 0 28.32886940446194 29.69095053331052 20.164522825722013 0 0 0
2700 54 1 0 46.867832088324214 29.291570440121696 21.407294978024783 0 0 0
3034 61 1 0 -5.177356592950006 30.424427026333376 19.968737321609172 1 0 0
3035 61 1 0 -5.579008454918093 30.39531011182842 21.045654799356914 1 0 0
4539 91 1 0 1.0068985934621266 31.76086401177202 19.616217732309845 0 0 0
440 9 1 0 10.731141332728013 30.415563802762097 19.902294041180003 0 0 0
4047 81 1 0 18.61628622744281 31.57017431172645 19.958391039483274 0 0 0
4048 81 1 0 19.095650509121537 30.693353003546232 20.130881984627266 0 0 0
1759 36 1 0 23.74379287185309 31.752271521884587 19.42494786819607 0 0 0
1760 36 1 0 23.80226309846568 30.695061457540238 19.756615814123418 0 0 0
1387 28 1 0 28.307806537437155 31.91801567072491 20.519821515235375 0 0 0
1386 28 1 0 28.32482739177222 30.825454058339297 20.40630567693906 0 0 0
3151 64 1 0 34.933487462575414 31.31903326458297 20.393994987782502 0 0 0
3152 64 1 0 35.54714437598826 30.959685384064983 21.10756551533302 0 0 0
4540 91 1 0 1.4547323344314749 32.601854048966715 20.241324075588473 0 0 0
4541 91 1 0 1.4072136856897277 33.54679407841078 20.745662798985354 0 0 0
4542 91 1 0 1.1626823342891148 34.546131521212025 21.379987007724655 0 0 0
4345 87 1 0 5.337772804008445 34.50427440770955 19.528366938275838 0 0 0
4046 81 1 0 18.207159928995807 32.4395966758309 19.483101941468295 0 0 0
1388 28 1 0 28.009700040302327 33.04871886941039 20.866807566835025 0 0 0
1389 28 1 0 27.598961411681305 34.04628969524251 21.259308104881534 0 0 0
3174 64 1 0 51.986709669888825 34.18625289306373 19.526889634817984 0 0 0
3173 64 1 0 51.68307032984957 34.469658439466585 20.63610110443393 0 0 0
4346 87 1 0 5.3539987342593625 35.30683949393329 20.25312081405252 0 0 0
4347 87 1 0 5.302122689536846 36.123181823906876 21.03026192439323 0 0 0
3350 67 1 0 8.2872099802656 38.55276110100061 19.534637312109872 0 0 0
833 17 1 0 31.946268206682586 38.70717964349105 21.095551723794987 0 0 0
1569 32 1 0 40.123948542009835 37.37150307541185 20.72608999419624 0 0 0
1570 32 1 0 41.065881578511735 37.76543833456088 20.157837983348546 0 0 0
1571 32 1 0 42.02466500900395 37.891664571270546 19.585425826858575 0 0 0
3349 67 1 0 9.169321306823248 39.0739340719995 19.539622844501995 0 0 0
3348 67 1 0 10.075138368168604 39.80577769415931 19.621290999787153 0 0 0
3347 67 1 0 10.924586891867252 40.56704328450307 19.82045216996792 0 0 0
1752 36 1 0 23.03365238432516 39.06456955757456 19.284670834127358 0 0 0
1751 36 1 0 23.033171855203246 39.966514448594296 19.798810159771016 0 0 0
832 17 1 0 32.24891514308756 39.24924939220885 20.15876011569842 0 0 0
1575 32 1 0 45.90538139808449 39.219955434905074 19.33951791277707 0 0 0
1576 32 1 0 46.62216354434145 39.39830669401406 20.308318420063323 0 0 0
1577 32 1 0 47.12408620410818 39.53787044722137 21.310706678576153 0 0 0
3346 67 1 0 11.84327770525423 41.23119225058747 19.85123269751628 0 0 0
3345 67 1 0 12.514092436444967 42.12381802372886 19.973413779200015 0 0 0
3344 67 1 0 13.31204577453808 43.023564083413525 19.96372365613686 0 0 0
4876 98 1 0 28.446529360101703 41.38905192946095 19.86954271340399 0 0 0
4875 98 1 0 28.62116507185998 41.54592305728824 20.922630285356334 0 0 0
1430 29 1 0 38.89366429850807 42.78604471774081 19.65419628617616 0 0 0
1431 29 1 0 39.82776222423512 42.771120576482524 20.245882640378742 0 0 0
1432 29 1 0 40.82813124400143 42.64800049036297 20.716953672000702 0 0 0
1433 29 1 0 41.76563048156431 42.7944852855043 21.209661503638046 0 0 0
3904 79 1 0 3.2674676034667294 44.925469128914536 19.63434903515994 0 0 0
3342 67 1 0 14.799871427915964 44.6328866446892 19.348875645645418 0 0 0
3343 67 1 0 14.096593637324212 43.816408606254626 19.643430221306986 0 0 0
1422 29 1 0 30.80655728615364 45.297413063655064 19.98771474349883 0 0 0
1423 29 1 0 31.898340132701872 45.07855335771105 19.727594726554685 0 0 0
1425 29 1 0 33.99164371955292 44.79570478099111 19.279358412789367 0 0 0
1424 29 1 0 32.988000897562586 45.20706033991795 19.47685641946812 0 0 0
3901 79 1 0 1.6950908487418257 47.390593318808754 21.130601876707697 0 0 0
3902 79 1 0 2.104195038464496 46.442125206023285 20.835831362362157 0 0 0
3903 79 1 0 2.4923626811244 45.679604022984606 20.219079960138174 0 0 0
3713 75 1 0 10.079351226353312 46.586839862948395 20.074827840772535 0 0 0
3714 75 1 0 10.634771555689783 46.38340062875675 21.11612035489822 0 0 0
3725 75 1 0 21.54230314628132 45.66033453818285 20.88129294683192 0 0 0
3726 75 1 0 21.99722311819748 45.67120041909385 19.76537284531234 0 0 0
1419 29 1 0 27.796017913940275 46.31778952567512 21.363637328954447 0 0 0
1421 29 1 0 29.724223881666312 45.65303165682452 20.434955122725572 0 0 0
1420 29 1 0 28.853514438055132 46.153362421902585 20.918858648779086 0 0 0
1692 34 1 0 -4.440562516300849 49.66773123369341 20.147878852772134 0 0 0
1691 34 1 0 -3.8481137799612224 48.76237268459091 20.73801821017664 0 0 0
1690 34 1 0 -3.0181171609031083 47.91707467368358 21.10292949745876 0 0 0
300 6 1 0 34.504978497184105 48.53374409452348 20.0880738533031 0 -1 0
299 6 1 0 33.94262506051179 49.34217626309396 20.195860602390493 0 -1 0
2897 58 1 0 46.2538016030896 48.810407280616744 19.834621726830395 0 0 0
2896 58 1 0 45.622789337075545 48.7446006018359 20.776943542356026 0 0 0
1693 34 1 0 -4.791946412134874 50.385001229987765 19.421060717540765 0 0 0
3694 74 1 0 4.918107912283578 51.94947179649402 19.36882461870316 0 0 0
3695 74 1 0 4.825749912432608 51.464363186521815 20.453849039073088 0 0 0
3696 74 1 0 4.8445076664922935 50.98694279356285 21.381415171557666 0 0 0
4371 88 1 0 13.658783523168887 50.37179061202957 20.602109281360278 0 0 0
4372 88 1 0 13.708172838043419 50.144963371592475 19.397327912153138 0 0 0
295 6 1 0 30.061934910161355 51.65110652113184 19.676348852135234 0 -1 0
296 6 1 0 31.09133059103276 51.2953046203673 19.840402343603692 0 -1 0
297 6 1 0 32.00728095913249 50.78411270799728 20.11731949396266 0 -1 0
298 6 1 0 32.98964345035753 50.1302335951794 20.08713790790253 0 -1 0
4112 83 1 0 -5.907760865904494 -5.6911107296596715 22.8178317748293 0 0 0
4113 83 1 0 -5.410835412963825 -5.330335256805218 21.848259803012315 0 0 0
1139 23 1 0 39.557467690732274 -6.71000759356599 21.511725366920125 0 0 0
1173 24 1 0 49.048049388741816 -4.9518909375106235 22.869315390770794 0 0 0
1174 24 1 0 49.02465085837411 -5.050726492936499 21.70594307334698 0 0 0
118 3 1 0 10.914646328664906 -4.478322308027961 21.997738192597378 0 0 0
117 3 1 0 11.153577408711804 -4.661919040213118 23.03533824045746 0 0 0
360 8 1 0 22.867767528141393 -3.473333135142547 23.26902438682127 0 0 0
359 8 1 0 23.646673113538732 -3.1468647160648455 22.51593167243127 0 0 0
336 7 1 0 34.85638198221924 -3.5328042147692784 23.414125912902026 0 0 0
335 7 1 0 35.52873101228036 -2.762137043684507 23.04981119515176 0 0 0
4122 83 1 0 1.2021983065501194 -1.2848744319474226 22.10757843182623 0 0 0
4123 83 1 0 1.8817805972950004 -1.264318567065202 23.06458634092285 0 0 0
85 2 1 0 7.753831770039714 -1.852892253032102 23.164097087008383 0 0 0
86 2 1 0 8.343890153474257 -0.8874892945670992 23.04270101944363 0 0 0
358 8 1 0 24.338158417446223 -2.6034688458490334 21.831097869560093 0 0 0
357 8 1 0 25.279533253453625 -2.108076712800995 21.471335176837236 0 0 0
333 7 1 0 36.60393694559679 -0.9694094286328343 21.949161879724276 0 0 0
334 7 1 0 36.02987998080249 -1.9112789454460775 22.3714960936249 0 0 0
4082 82 1 0 -2.197948996712435 1.3244029135390327 23.46679594663352 0 0 0
87 2 1 0 8.920054439794772 0.04759755922215568 23.02228529044385 0 0 0
88 2 1 0 9.708266938469777 0.8042593792109478 23.228794190265376 0 0 0
304 7 1 0 21.220558370023696 0.8938864487600392 23.48170539930855 0 0 0
305 7 1 0 21.858817127279202 1.6144945244484983 22.87672602867279 0 0 0
3831 77 1 0 48.42698610953224 -0.35776992645365024 22.273324525430237 -1 0 0
3832 77 1 0 48.88338428361989 0.12038179795055244 23.25145830701527 -1 0 0
4081 82 1 0 -1.9758167537030589 2.145751563282045 22.724241624509016 0 0 0
4080 82 1 0 -1.408882649752893 2.9794992792415598 22.09336859048055 0 0 0
306 7 1 0 22.72371909248166 2.336006831832623 22.672149566978174 0 0 0
307 7 1 0 23.361531689039904 3.2639202700792027 22.351907583405396 0 0 0
2671 54 1 0 42.99159438610761 3.7973793370313262 22.2274075832736 0 0 0
2670 54 1 0 42.571885872870126 3.137266487045073 22.98143985198673 0 0 0
3855 78 1 0 -5.5132666060785605 5.557655910260127 21.585795254723493 0 0 0
308 7 1 0 24.1396130609264 3.944757196137098 21.8446134006783 0 0 0
2672 54 1 0 43.48301202596535 4.637082121190987 21.717930512910627 0 0 0
3856 78 1 0 -5.201759765484035 6.425380950800944 22.268186576017314 0 0 0
3857 78 1 0 -4.911071853039145 7.190801172468549 23.01348080097457 0 0 0
3858 78 1 0 -4.458378965078234 8.141340871560164 23.522159800729433 0 0 0
4724 95 1 0 21.469227696974396 7.931071153630165 21.677321969299708 0 0 0
4725 95 1 0 22.02496256208916 8.143251278919447 22.710044273506256 0 0 0
4726 95 1 0 22.86634187561621 8.218457218019472 23.42316616887301 0 0 0
2151 44 1 0 38.326287195087225 6.892542959036216 23.360128049766868 0 0 0
2152 44 1 0 38.49406976017046 7.784648782515359 22.85743722104034 0 0 0
409 9 1 0 4.076574766665537 9.960249642957736 22.76322832122917 0 0 0
410 9 1 0 4.823146542729951 9.310955374001878 23.333968754504895 0 0 0
2153 44 1 0 38.835444335691896 8.944634231491834 22.896733443809655 0 0 0
2154 44 1 0 39.270800029506965 9.928570982379737 22.996375221728503 0 0 0
2139 43 1 0 43.573513876041595 9.642749091830497 22.41524074526276 0 0 0
2138 43 1 0 43.39647826602283 9.694044734322556 23.56288433138628 0 0 0
2681 54 1 0 50.436419702682635 9.835977269766563 21.60449461416233 0 0 0
408 9 1 0 3.6258757071690613 10.887337503700277 22.429911271398588 0 0 0
407 9 1 0 3.3895614837304375 11.88856797843033 21.932814910054194 0 0 0
2156 44 1 0 40.28289663703127 11.908384738369886 22.74972782019902 0 0 0
2155 44 1 0 39.79697073519186 10.842670570142158 22.91606478573408 0 0 0
2682 54 1 0 50.90451165944724 10.582456886829746 22.20205186957462 0 0 0
2683 54 1 0 51.360866978114096 11.522950106594864 22.468536535518794 0 0 0
2684 54 1 0 51.719768792683624 12.480098073319533 22.810138931294627 0 0 0
406 9 1 0 2.8876357787288103 12.702373581266519 21.503045782628277 0 0 0
864 18 1 0 20.973890329898545 13.448254997588217 21.72868330368833 0 0 0
863 18 1 0 21.41602181505275 14.413701052587573 22.089292146592257 0 0 0
1303 27 1 0 27.071093620244035 14.228043511639424 21.700968730315232 0 0 0
799 16 1 0 33.18852486121464 14.048458788021573 23.52176536575729 0 0 0
798 16 1 0 32.644381367688474 14.495174584633963 22.67034727985156 0 0 0
2157 44 1 0 40.94861306938722 12.758123619472142 22.35211806737316 0 0 0
2158 44 1 0 41.81726243285318 13.451311701458286 22.414081767228833 0 0 0
2159 44 1 0 42.75231177331449 14.112660465191865 22.46066428819701 0 0 0
2160 44 1 0 43.630151937799184 14.732662186838562 22.547263562883558 0 0 0
2685 54 1 0 51.50284775491673 13.603107767271233 23.122725423944182 0 0 0
2686 54 1 0 51.52128049628799 14.770741268993921 23.256394098862344 0 0 0
4691 94 1 0 12.330016236877617 16.250494445706114 21.57426912131631 0 0 0
4690 94 1 0 12.458912810577452 16.8229966721656 22.541338486580603 0 0 0
862 18 1 0 22.160254121859236 15.246755544904206 22.340730332572925 0 0 0
861 18 1 0 22.85959050191042 16.0285542148544 22.8307319028545 0 0 0
860 18 1 0 23.659703851953775 16.811914045471564 23.28147946370349 0 0 0
1304 27 1 0 27.715770923689913 15.050271083130326 22.235801464422387 0 0 0
1305 27 1 0 28.45553490549444 15.89370079436659 22.52730169473021 0 0 0
1306 27 1 0 28.94831547536918 16.902929862217327 22.853601484715387 0 0 0
797 16 1 0 32.395535312003105 15.17873364238556 21.761598503518904 0 0 0
2161 44 1 0 44.462684468309234 15.369986677953609 22.915736323096453 0 0 0
2162 44 1 0 45.10240068957226 15.993188714262589 23.49299140033904 0 0 0
2687 54 1 0 51.21103410347601 15.829414373895967 22.99402016241326 0 0 0
2688 54 1 0 51.04724872939356 16.882955589712967 22.816754963072025 0 0 0
3869 78 1 0 -2.9910067176678825 17.897940941533626 22.50974119848948 0 0 0
4689 94 1 0 12.621230010093122 17.450142784739917 23.583383918219315 0 0 0
859 18 1 0 24.594132261852906 17.358096420804678 23.56237840786071 0 0 0
1307 27 1 0 29.81219570201933 17.498030949458418 23.525330714538264 0 0 0
2689 54 1 0 50.92740718003355 17.952920753822628 22.466983882283305 0 0 0
2690 54 1 0 50.62805608526986 19.12792219107675 22.208655909392192 0 0 0
519 11 1 0 11.355612813919587 21.047781060115305 21.582494117599907 0 0 0
518 11 1 0 10.923555959875687 21.280414681643983 22.63254644893409 0 0 0
1320 27 1 0 42.76063534177004 20.538547047317326 22.862254105688237 0 0 0
1319 27 1 0 41.792854493257586 20.590952788476937 23.58783387489931 0 0 0
1321 27 1 0 43.49205650549133 20.43434811536311 22.07007535678573 0 0 0
2691 54 1 0 50.14715305554574 20.14681893385995 22.479102505988557 0 0 0
2692 54 1 0 50.09004444946039 21.097548318831223 22.735223101905984 0 0 0
4327 87 1 0 -4.191563946745691 23.18138297296082 22.198652892464807 0 0 0
4326 87 1 0 -4.303967066701071 23.462280286003743 23.233807124312094 0 0 0
517 11 1 0 10.75501687821553 21.791493360626884 23.55027164279028 0 0 0
2694 54 1 0 49.46225971490361 23.45278589389616 22.945786491054243 0 0 0
2693 54 1 0 49.88895648046586 22.282643220480647 22.91236454176961 0 0 0
1766 36 1 0 21.909390390175904 25.79001313886066 23.540665782152793 0 0 0
565 12 1 0 43.950990945676445 25.705381700132495 22.4393110611991 0 0 0
2696 54 1 0 48.4019884370465 25.436461147031203 22.992679410991418 0 0 0
2695 54 1 0 48.87978660363726 24.411408378514917 23.121848707665524 0 0 0
4053 82 1 0 5.62856041693142 26.283193821826178 21.851113933206776 0 0 0
4051 82 1 0 4.882475626446772 27.8319127370064 23.114581563641092 0 0 0
4052 82 1 0 5.137433191003509 27.25239055249916 22.38817475589519 0 0 0
1765 36 1 0 22.681200411698292 26.407266100449192 22.919208704663305 0 0 0
1764 36 1 0 23.261562731386142 27.16531179893523 22.35714399939154 0 0 0
1763 36 1 0 23.699958024847177 27.903403138505368 21.623197352079398 0 0 0
564 12 1 0 44.09982427694717 25.928896461911627 23.57990287971797 0 0 0
2698 54 1 0 47.48162022553856 27.427483048287694 22.322275793029274 0 0 0
2697 54 1 0 47.94573197475432 26.36300360390394 22.61728847848864 0 0 0
438 9 1 0 9.99139856322864 29.291624837877848 21.76023985416613 0 0 0
437 9 1 0 9.51755172305783 28.78883520094639 22.66324331676528 0 0 0
436 9 1 0 9.144864197680947 28.242129426657836 23.57873506938729 0 0 0
2699 54 1 0 47.06569593021331 28.444550004408995 21.895022345976688 0 0 0
3036 61 1 0 -5.958186986583557 30.596818939970692 22.152505973444853 1 0 0
3037 61 1 0 -6.264054459334436 30.897061131444264 23.195946629212163 1 0 0
452 10 1 0 14.002835744919613 31.60160978761661 23.019372674644924 0 0 0
451 10 1 0 14.822812947833246 31.1838128022108 22.717952079298716 0 0 0
453 10 1 0 13.075534637142551 32.238561930097845 23.239688810578805 0 0 0
3153 64 1 0 36.320307537868935 30.93694170280716 21.839796644277445 0 0 0
3154 64 1 0 36.92082049254333 30.854404549172244 22.808467089955812 0 0 0
454 10 1 0 12.065789021957327 32.88375184962385 23.37738072883663 0 0 0
4544 91 1 0 0.19032355159589107 36.20694681320008 22.148017464456192 0 0 0
4543 91 1 0 0.7296669193503337 35.31648681462985 21.91473630822581 0 0 0
1390 28 1 0 27.40423643438107 35.05716833996791 21.580445468868408 0 0 0
1391 28 1 0 27.131417896495243 36.03730223169804 22.152021359949504 0 0 0
836 17 1 0 30.968451169530542 36.4699741159411 23.422337784088217 0 0 0
1567 32 1 0 39.29528650056175 36.146966250685345 22.570830138071493 0 0 0
1568 32 1 0 39.48996266320773 36.688436114746224 21.516483590349235 0 0 0
3172 64 1 0 51.308599381135956 34.74257312036795 21.640485886519354 0 0 0
3171 64 1 0 51.03763343138916 35.12401001101898 22.69821688107348 0 0 0
4547 91 1 0 -2.116168308854506 38.62812868194813 22.909023734890717 0 0 0
4546 91 1 0 -1.3124253528086758 37.800327038088156 22.756230784033185 0 0 0
4545 91 1 0 -0.6142111428279494 36.993843732568386 22.485173628089395 0 0 0
4348 87 1 0 5.591594414743093 36.89470053732823 21.924328061837066 0 0 0
4349 87 1 0 5.4505782335052055 37.98458024306066 22.421067708702008 0 0 0
4350 87 1 0 5.290356583243884 38.88647400926108 22.94006358992774 0 0 0
1392 28 1 0 26.938957798331828 36.9439860619674 22.838810502636285 0 0 0
1393 28 1 0 26.845757161631333 37.709827614714534 23.63226876921662 0 0 0
835 17 1 0 31.207868774578365 37.340104155624886 22.890675091045285 0 0 0
834 17 1 0 31.502864603946946 38.14811836542449 22.065500479444054 0 0 0
4548 91 1 0 -3.0642059578757364 39.33398633856258 22.91338724748881 0 0 0
4549 91 1 0 -3.9204055798002404 40.060345828256224 22.803984850852537 0 0 0
4550 91 1 0 -4.575217393794647 40.66221330997518 22.29338574202092 0 0 0
1578 32 1 0 47.57937247999938 39.44250326929576 22.399083043143595 0 0 0
1579 32 1 0 47.607486355974736 39.508455466112686 23.521294209155645 0 0 0
4874 98 1 0 28.854266438782055 42.0741826481055 21.94597966924022 0 0 0
4873 98 1 0 28.894361840841235 42.250402716249006 23.091855512971545 0 0 0
1686 34 1 0 -1.0787841412555155 44.348610236677395 23.035558731598698 0 0 0
1687 34 1 0 -1.4373748519263665 45.34539599277783 22.593638735899482 0 0 0
1685 34 1 0 -0.36437063399147906 43.655739587533255 23.52343433195039 0 0 0
1434 29 1 0 42.37918551091377 43.40160430197535 22.01067281162033 0 0 0
1435 29 1 0 42.99490897813249 43.85449601409261 22.825746022012698 0 0 0
1436 29 1 0 43.71184381399812 44.480164185629654 23.61211177336818 0 0 0
1689 34 1 0 -2.312857999297166 47.18542804735993 21.506920535213965 0 0 0
1688 34 1 0 -1.7124695517525432 46.36972836911612 22.120216053608427 0 0 0
3715 75 1 0 11.422228984109136 46.460637814717074 21.874970959425173 0 0 0
3716 75 1 0 12.363558808496471 46.46175021824184 22.606452159906148 0 0 0
3717 75 1 0 13.387198126904217 46.70997110798726 22.963703187489646 0 0 0
3718 75 1 0 14.51839131075198 46.54738492672633 22.97505799921373 0 0 0
3720 75 1 0 16.755622380406695 46.43663838401559 22.910433787586456 0 0 0
3719 75 1 0 15.592593086230078 46.399836440129214 23.024719225281643 0 0 0
3722 75 1 0 18.99442426074125 46.26922184330616 22.8518371850016 0 0 0
3721 75 1 0 17.903659655850436 46.54532839085195 22.764113791170136 0 0 0
3724 75 1 0 20.789422018869107 45.79866401825508 21.661774627877932 0 0 0
3723 75 1 0 19.97182166064816 45.99592054623106 22.495948476496665 0 0 0
1416 29 1 0 25.172044454945553 46.579199394817884 23.56283619881802 0 0 0
1417 29 1 0 26.038208835794617 46.45588028502649 22.752033839587504 0 0 0
1418 29 1 0 26.833401734466907 46.407925052300115 21.910507600683633 0 0 0
2895 58 1 0 45.045346494869285 48.97708382596336 21.717173879881546 0 0 0
2894 58 1 0 44.518183084622 49.19114796835617 22.667120363910453 0 0 0
2893 58 1 0 43.94593394579403 49.46534332312066 23.627265363699113 0 0 0
4553 92 1 0 51.27324262114897 48.546099041707215 23.50108976800754 -1 0 0
4552 92 1 0 50.85143700706323 49.10773176105594 22.6039294988628 -1 0 0
4551 92 1 0 50.713517676266854 49.53741622716109 21.66736625176713 -1 0 0
3698 74 1 0 3.995167939313821 49.99857355486897 23.238456487337903 0 0 0
3697 74 1 0 4.238754360450528 50.45294728342912 22.25063668348151 0 0 0
4369 88 1 0 13.328383360680279 50.469683396440054 22.761729091940804 0 0 0
4370 88 1 0 13.395637587627503 50.4531356922238 21.714584827767215 0 0 0
1140 23 1 0 38.78613087131924 51.70034040253301 22.11722971367565 0 -1 0
1141 23 1 0 38.029861047206495 51.34478411949669 22.813651415781667 0 -1 0
1142 23 1 0 37.245658252718194 50.59930541429878 23.40652613033094 0 -1 0
4111 83 1 0 -5.875118770083274 -5.752403098728548 24.022746301327675 0 0 0
4110 83 1 0 -5.611601665130813 -5.76195958707853 25.125244045092995 0 0 0
116 3 1 0 11.421922894623014 -4.849174498640243 24.11838275721321 0 0 0
82 2 1 0 6.469651402148221 -4.065507357676109 25.17168010819123 0 0 0
83 2 1 0 6.818799473815539 -3.5451101947911647 24.374193721037734 0 0 0
84 2 1 0 7.395972882417466 -2.865361877605893 23.646810917471953 0 0 0
115 3 1 0 11.981071666978684 -4.613077743224036 25.087042989596263 0 0 0
363 8 1 0 20.712801680070843 -4.4561380170221305 25.71273400745661 0 0 0
362 8 1 0 21.334906095902202 -4.237391722984569 24.752418094329073 0 0 0
361 8 1 0 22.0936878720822 -3.7462740479510166 24.00831531965073 0 0 0
339 7 1 0 32.24084026920253 -4.08660864880922 25.182670283261146 0 0 0
338 7 1 0 32.98773647577987 -4.11450936793722 24.485840710154893 0 0 0
337 7 1 0 34.070224059523845 -4.188383930470384 23.89300773890817 0 0 0
1170 24 1 0 47.45840098616925 -3.8973826513913807 25.475859484953293 0 0 0
1172 24 1 0 48.80955336651678 -4.6360051954788135 23.856689439935135 0 0 0
1171 24 1 0 48.219752365501144 -4.319663127195419 24.833848916321063 0 0 0
4085 82 1 0 -2.4684021471388635 -1.007227107772157 25.751929534111817 0 0 0
4084 82 1 0 -2.1527489675639266 -0.4609547744063807 24.808893110396237 0 0 0
4124 83 1 0 2.3405646761709935 -1.5250758101091153 24.0653053763432 0 0 0
4125 83 1 0 2.45902299731247 -1.7227663202570704 25.223714587582634 0 0 0
301 7 1 0 19.133594169509752 -0.6159103987638359 25.5825009151068 0 0 0
4083 82 1 0 -2.1981919471478104 0.4441590796783139 24.22555188110686 0 0 0
89 2 1 0 10.643555403971675 1.4549115083965334 23.64835546992293 0 0 0
303 7 1 0 20.58794216187665 0.353220566644805 24.38971680920975 0 0 0
302 7 1 0 19.744817959674624 0.02719350516319567 25.038763445857175 0 0 0
3833 77 1 0 49.06759704100069 0.6741415604871928 24.326534279384163 -1 0 0
3834 77 1 0 49.278916544825485 1.4794684154769775 24.944692040839637 -1 0 0
3850 77 1 0 4.475352336905785 2.9980534415660163 24.53394958833568 0 0 0
3849 77 1 0 4.036323580668495 3.8982829835998465 24.65595231643912 0 0 0
90 2 1 0 11.500060686709524 1.906477015302054 24.124921507813777 0 0 0
91 2 1 0 12.34521623872744 2.449062383066088 24.76604415615989 0 0 0
92 2 1 0 13.014282396139532 2.7471418112208092 25.467436087733184 0 0 0
2667 54 1 0 40.56506520058499 2.2497971901149185 25.6216306218428 0 0 0
2668 54 1 0 41.367558923575785 2.658522822455559 24.894469010214895 0 0 0
2669 54 1 0 42.07009902666344 2.7623860663935287 23.925215971903885 0 0 0
3835 77 1 0 49.88024405358073 2.3238590494671363 25.445966885317905 -1 0 0
3846 77 1 0 1.2869965553333174 5.590577317318878 25.563952843324685 0 0 0
3847 77 1 0 2.230675918797858 5.063171367399928 25.14822529814117 0 0 0
3848 77 1 0 3.108185506069898 4.485813290904027 24.89638752802093 0 0 0
101 3 1 0 19.607262308257315 5.072475920093325 25.496811068816317 0 0 0
413 9 1 0 7.223036909348747 7.81532593273707 25.069989780758092 0 0 0
412 9 1 0 6.301862823402679 7.831748197997618 24.35438355074522 0 0 0
4728 95 1 0 24.748381734454217 8.156125771416933 24.844379195100704 0 0 0
4727 95 1 0 23.682990641775515 8.30510575789462 24.288730085602534 0 0 0
4729 95 1 0 25.572999889466857 8.007427857050102 25.510141776013015 0 0 0
3859 78 1 0 -4.305894993267152 9.15752730086864 23.889502692774464 0 0 0
3860 78 1 0 -4.147217724858402 10.183618124727762 24.422607121697485 0 0 0
411 9 1 0 5.570521799777076 8.47514233306369 23.67994033896274 0 0 0
2137 43 1 0 43.14699955437175 9.747933787293984 24.606965552216007 0 0 0
2136 43 1 0 42.802847411875454 9.956499803983236 25.65494071691027 0 0 0
3861 78 1 0 -3.9003339757536977 11.063411986141768 25.124976267952153 0 0 0
3862 78 1 0 -3.7233285460186605 12.085565800694349 25.689328951839226 0 0 0
391 8 1 0 14.034369084442616 12.488328217927046 24.015885900307957 0 0 0
392 8 1 0 12.882424849212335 12.696208145806231 23.81946772710287 0 0 0
390 8 1 0 15.093153630776687 12.359574694207426 24.533382691287883 0 0 0
389 8 1 0 16.1299568784024 12.470469892922365 25.012952191783086 0 0 0
388 8 1 0 17.025477174446905 12.641182265693224 25.804395152910516 0 0 0
2701 55 1 0 45.741965435019644 12.613168066859119 25.758078931896527 0 0 0
399 8 1 0 5.470550228128989 14.576312356566568 25.752314538995318 0 0 0
398 8 1 0 6.30349936589285 14.501665722176126 25.039775235419274 0 0 0
397 8 1 0 7.3463377606395674 14.274576332872435 24.842865528738656 0 0 0
396 8 1 0 8.432307575425959 13.989375254698508 24.567081117788934 0 0 0
395 8 1 0 9.541706159372264 13.67425761364383 24.474616932892445 0 0 0
393 8 1 0 11.749421069896222 12.935482434610371 24.13976650566877 0 0 0
394 8 1 0 10.577147445361051 13.135074529891801 24.254256362445606 0 0 0
800 16 1 0 33.79677738693552 13.58332065100756 24.10092485718316 0 0 0
3866 78 1 0 -3.5810990725222513 16.30195427900033 25.19182598564665 0 0 0
4201 85 1 0 0.5076275183637634 16.914059189925386 24.690780280842198 0 0 0
4202 85 1 0 0.9021928035505212 17.011691792033925 25.59298148389834 0 0 0
2163 44 1 0 45.41973036632346 16.814275271360554 24.18641847512076 0 0 0
3868 78 1 0 -3.182455817666839 17.86656625946532 23.640093155385674 0 0 0
3867 78 1 0 -3.3353659171563295 17.19443806862051 24.514160280044578 0 0 0
4688 94 1 0 12.368819764711679 17.940491360141348 24.492180673178574 0 0 0
4687 94 1 0 12.011187092876456 18.38720002773931 25.56497693957004 0 0 0
4652 94 1 0 16.430123714591723 18.876202943197963 25.430322789520247 0 0 0
858 18 1 0 25.35593771253892 18.22096965083912 23.951274316065742 0 0 0
857 18 1 0 25.94101194847351 19.077730552188257 24.553441988820843 0 0 0
1308 27 1 0 30.515590696707616 18.043926586751404 23.99609949512254 0 0 0
1309 27 1 0 31.453199676700844 18.546329257863498 24.41874601286875 0 0 0
1310 27 1 0 32.24719235052819 19.01688561896167 25.095282301266078 0 0 0
2165 44 1 0 45.507368694722956 18.511180111530326 25.598385731715293 0 0 0
2164 44 1 0 45.55233406090613 17.604270716238926 24.95663317776652 0 0 0
4651 94 1 0 16.842613831193574 19.362360418627524 24.588832025207388 0 0 0
856 18 1 0 26.38743366978303 19.992035101823618 24.92414950667406 0 0 0
855 18 1 0 26.827251927399516 21.000720197290363 25.218416769176184 0 0 0
1311 27 1 0 33.34705458133516 19.344315935947744 25.349115588475673 0 0 0
1312 27 1 0 34.395792726426556 19.755111340807815 25.314482193283528 0 0 0
1313 27 1 0 35.44117935732373 20.252750385715125 25.38069936015266 0 0 0
1314 27 1 0 36.49432093169908 20.553731078199004 25.421516948145744 0 0 0
1316 27 1 0 38.718498490585354 20.394540707036338 24.921034373786338 0 0 0
1315 27 1 0 37.52581313475317 20.53247493795717 25.173435851613387 0 0 0
1318 27 1 0 40.67491762440959 20.78996431969445 24.066226901251618 0 0 0
1317 27 1 0 39.78953406708775 20.602901517313022 24.665022039440238 0 0 0
516 11 1 0 10.637272233357788 22.298583622671188 24.472541882967246 0 0 0
515 11 1 0 10.810144685354677 23.054846030236536 25.37440360984961 0 0 0
854 18 1 0 27.172710554581524 22.086462644140674 25.194549475696512 0 0 0
853 18 1 0 27.85766956984168 23.05410525044338 25.072213297960058 0 0 0
4325 87 1 0 -4.403627606818392 24.04253415382995 24.297691006412762 0 0 0
4324 87 1 0 -4.478734160821232 24.751386525121372 25.225658434067196 0 0 0
1770 36 1 0 18.45296334884664 24.885413281361657 25.805686920795424 0 0 0
1769 36 1 0 19.39524775437555 24.580522928181516 25.299931564348437 0 0 0
1768 36 1 0 20.213670571511972 24.640905441879035 24.5715473148673 0 0 0
1767 36 1 0 21.070802187478247 25.036754580908045 23.93051653031069 0 0 0
852 18 1 0 28.74633353855345 23.816685323055722 24.741067596839592 0 0 0
851 18 1 0 29.051177642941646 24.69023505068837 24.259824499268905 0 0 0
562 12 1 0 43.79209068427301 25.6836580622179 25.721583671082076 0 0 0
467 10 1 0 0.666040294367717 27.872941763417003 25.293819969668697 0 0 0
468 10 1 0 0.18345497828573076 26.79594236908117 25.518186504755317 0 0 0
433 9 1 0 7.382807034048887 26.016793662466203 25.411943874079142 0 0 0
434 9 1 0 8.226907908173812 26.748819345836296 25.067214358941865 0 0 0
435 9 1 0 8.737894583373258 27.50807700152176 24.429730358696418 0 0 0
563 12 1 0 44.11100818024058 25.965432324369672 24.63933213189325 0 0 0
466 10 1 0 0.9150415764467436 28.868272168689582 24.81244486629345 0 0 0
465 10 1 0 1.4298184532113867 29.82555883295904 24.486954132420184 0 0 0
1750 35 1 0 19.154184749318492 29.539699089457354 24.515712852400565 0 0 0
2210 45 1 0 22.921686607264 29.076681650845945 25.749255836429377 0 0 0
2209 45 1 0 22.741794094942428 30.161026497902736 25.482547489493474 0 0 0
3038 61 1 0 -6.570202548464299 31.02272710024641 24.293831917430666 1 0 0
1701 35 1 0 -2.526530859533252 30.88773377706813 24.63229126601895 0 0 0
1702 35 1 0 -2.2284521814310434 31.576480821149023 25.42248242697112 0 0 0
464 10 1 0 1.9837355017900717 30.83343769611519 24.34924918756341 0 0 0
463 10 1 0 2.6443733269578247 31.77819120596848 24.29715860301607 0 0 0
1748 35 1 0 18.34195321197689 31.536696647234308 24.367340094636162 0 0 0
1749 35 1 0 18.76594937409361 30.524667186588584 24.41546726045578 0 0 0
2208 45 1 0 22.48390120952968 31.293458461647635 25.31717562574027 0 0 0
841 17 1 0 31.93884851551109 31.649220387630514 25.703079476475136 0 0 0
3155 64 1 0 37.456550030906136 30.861184712439105 23.729214297501144 0 0 0
3156 64 1 0 37.99330845910889 30.85288183095178 24.700184651149748 0 0 0
3157 64 1 0 38.54056612111548 31.05448491085981 25.81120972516405 0 0 0
3039 61 1 0 52.01677958133638 31.326961802965677 25.3432458947855 0 0 0
462 10 1 0 3.4186515802145734 32.64220795755799 24.196974189935233 0 0 0
461 10 1 0 4.390549875598547 33.34713365685766 24.268382228246647 0 0 0
460 10 1 0 5.505278926509997 33.685584982618664 24.256383700472878 0 0 0
459 10 1 0 6.585962387706552 33.89809487141667 24.267537319256043 0 0 0
458 10 1 0 7.672655742007357 33.854383156177406 24.30664860604024 0 0 0
457 10 1 0 8.793147028340458 33.79825001301507 24.094399478064712 0 0 0
456 10 1 0 9.90027123914788 33.46166469088724 24.062835407303393 0 0 0
455 10 1 0 10.990061067259866 33.14623847476658 23.764457528016198 0 0 0
1747 35 1 0 18.121432317069136 32.703470588715454 24.15603462277804 0 0 0
1746 35 1 0 17.752747290750914 33.814043108823554 24.07493351946436 0 0 0
2207 45 1 0 22.415903887711274 32.51543624005608 25.06893047135196 0 0 0
2206 45 1 0 22.229303693642404 33.65895291277163 25.076566926557717 0 0 0
839 17 1 0 31.001963393496492 33.51197790210357 24.803102928632175 0 0 0
840 17 1 0 31.414586214216353 32.622958010216685 25.35775232071198 0 0 0
838 17 1 0 30.746900594738314 34.476016548938105 24.215455208224906 0 0 0
1744 35 1 0 17.029411220244516 35.89021363923184 23.890439752975233 0 0 0
1745 35 1 0 17.456040626666162 34.82471407908388 23.883204757873703 0 0 0
2205 45 1 0 22.138491850687725 34.63086829146993 25.58321782139096 0 0 0
837 17 1 0 30.89843416077064 35.447507973024564 23.755831644120093 0 0 0
1566 32 1 0 39.23726909624305 35.901936292946075 23.712930839350328 0 0 0
1565 32 1 0 39.36038760549722 36.085975720131195 24.867256001060642 0 0 0
3168 64 1 0 49.21954609001215 35.52497983605218 25.59436469779259 0 0 0
3169 64 1 0 49.81062297228868 35.42202253693134 24.62992832620313 0 0 0
3170 64 1 0 50.34894583803879 35.36635224356881 23.693114553198022 0 0 0
1743 35 1 0 17.06559418763406 37.11906824134144 24.008187412083416 0 0 0
1742 35 1 0 16.954388511290905 38.09650516455059 24.496107071455707 0 0 0
1394 28 1 0 26.56258470945928 38.4066501812016 24.34293938649475 0 0 0
1682 34 1 0 1.341402954889846 41.069347810422535 24.833628379731653 0 0 0
1681 34 1 0 1.854127777095779 40.321732704724745 25.455314203669836 0 0 0
1741 35 1 0 16.897525069646193 39.12894771131921 24.89758264526139 0 0 0
1740 35 1 0 17.07582375651758 40.17551124483893 25.32497535214775 0 0 0
1395 28 1 0 26.34463437736361 39.195810714339295 25.043569985409217 0 0 0
1581 32 1 0 46.43653136960055 39.98336418198581 25.332519948532582 0 0 0
1580 32 1 0 47.24970385070913 39.64625687141972 24.57454372717886 0 0 0
1684 34 1 0 0.2588175992295045 42.79117538350121 23.853186772619864 0 0 0
1683 34 1 0 0.7333982194914264 41.96141509494125 24.39194989544808 0 0 0
4872 98 1 0 28.908395694467362 42.246178232707145 24.23738248289653 0 0 0
4871 98 1 0 28.81528196828226 42.45775972860315 25.411969787044804 0 0 0
3150 63 1 0 49.397729265525676 43.016506395763635 25.271228685346863 0 0 0
1437 29 1 0 44.429530651577096 45.108934822764276 24.24586332187848 0 0 0
4556 92 1 0 -6.547309428982122 46.46704605867338 25.738292811190412 0 0 0
4555 92 1 0 -6.988858032239577 47.11048458768419 25.066539372999387 0 0 0
1413 29 1 0 22.76077845690362 47.70820200228883 25.654291080277023 0 0 0
1414 29 1 0 23.688429127468456 47.12208314181596 25.076619235614192 0 0 0
1415 29 1 0 24.31944244692721 46.831652743051826 24.253582451590507 0 0 0
1148 23 1 0 31.89707458329183 47.32790974704499 25.660876386882713 0 -1 0
1438 29 1 0 45.065184768323704 45.87888931253866 24.76766793607612 0 0 0
1439 29 1 0 45.89150192267626 46.610471386694215 25.22334004044555 0 0 0
1440 29 1 0 46.49111809346201 47.41130910835613 25.467500316640532 0 0 0
3699 74 1 0 3.896866036737249 49.557597627184784 24.231226316893032 0 0 0
3700 74 1 0 3.435597369794247 48.95404572550282 24.88299941957553 0 0 0
4366 88 1 0 11.71905662930744 49.46181461832574 25.434820416171362 0 0 0
1147 23 1 0 32.830098023975886 47.80164379212831 25.184813502944877 0 -1 0
1146 23 1 0 33.80543752179698 48.164799607759385 24.704758666608942 0 -1 0
1145 23 1 0 34.70821001841481 48.85167457653444 24.48801584997935 0 -1 0
1144 23 1 0 35.66299018819363 49.294779748202124 24.22442260309664 0 -1 0
2891 58 1 0 42.830574619127916 49.58849887850349 25.417508735002446 0 0 0
2892 58 1 0 43.31976905140935 49.63481709075597 24.53546619466166 0 0 0
4554 92 1 0 51.5522984030714 47.74012537101285 24.284042583505755 -1 0 0
4367 88 1 0 12.351614457859316 49.98223330252631 24.669755268592183 0 0 0
4368 88 1 0 13.111603607800166 50.34503023693913 23.825860743872717 0 0 0
1143 23 1 0 36.42244645238617 49.94247958331712 23.802875727802217 0 -1 0
4109 83 1 0 -5.406342512452614 -5.923366145213691 26.20587309755531 0 0 0
4108 83 1 0 -5.260589944540673 -6.36377916622936 27.234446594712004 0 0 0
80 2 1 0 5.823552056498426 -4.866831173193788 27.166683439289113 0 0 0
1159 24 1 0 36.44786190161474 -6.883595406686499 27.214078650738543 0 0 0
1160 24 1 0 37.41695852121422 -6.303864855754716 26.84118861600237 0 0 0
1161 24 1 0 38.27203252251134 -5.665401024503169 26.624029066058807 0 0 0
1162 24 1 0 39.22396149502319 -4.999304222445516 26.279969528901308 0 0 0
81 2 1 0 6.078953561587153 -4.502374764350329 26.132855032295875 0 0 0
114 3 1 0 12.664596368383597 -4.204437442991702 25.87672049236528 0 0 0
113 3 1 0 13.111383223315949 -3.539044815478772 26.737849303170908 0 0 0
112 3 1 0 13.24136510928553 -2.945146041617768 27.66901822019494 0 0 0
364 8 1 0 20.230228459329634 -4.408559850775123 26.71635183720601 0 0 0
365 8 1 0 19.981698559200815 -4.324289597354554 27.885029546940764 0 0 0
341 7 1 0 30.942426809568722 -3.942361486525013 26.95035911911956 0 0 0
340 7 1 0 31.582565394831523 -4.033005619549929 25.991681597376708 0 0 0
342 7 1 0 30.225973723262925 -3.869759423994539 27.843290549228694 0 0 0
1163 24 1 0 40.27293457811059 -4.4603389553705775 26.168488606647813 0 0 0
1164 24 1 0 41.34149163939482 -4.034525056751433 25.96191030467249 0 0 0
1165 24 1 0 42.325613167372865 -3.5429515105084364 26.1629114247921 0 0 0
1166 24 1 0 43.279813168109115 -2.9623123012466133 26.28983303531098 0 0 0
1167 24 1 0 44.410950240915106 -2.827444942245374 26.281797312285324 0 0 0
1168 24 1 0 45.57479507200575 -2.691076926846624 26.400342850402396 0 0 0
1169 24 1 0 46.51063360369551 -3.331894370996828 25.979704009817493 0 0 0
4086 82 1 0 -2.926860700870135 -1.5362555177127284 26.610113226342808 0 0 0
4087 82 1 0 -3.2367628894315446 -2.0856691745081615 27.552765242626624 0 0 0
4126 83 1 0 2.808359425130964 -1.8795732439856019 26.34281182427504 0 0 0
4127 83 1 0 2.941860445799423 -1.9961629012288369 27.40468244351496 0 0 0
93 2 1 0 13.840511551089676 3.336691985638149 26.085661564814636 0 0 0
105 3 1 0 17.769144101023237 2.2833263580942726 27.903068358555892 0 0 0
104 3 1 0 18.24763039797867 3.265124937057272 27.493840194486893 0 0 0
4737 95 1 0 32.330553559920155 2.916283295547493 27.294907921013365 0 0 0
4736 95 1 0 31.51122987110556 3.6601188043561623 27.388585916514266 0 0 0
4738 95 1 0 33.01270335090064 2.0952884009806683 27.45051100007567 0 0 0
2666 54 1 0 39.91622887133269 1.9666119692688495 26.567126363616172 0 0 0
2665 54 1 0 39.58451855431887 1.798406556081156 27.67999328267101 0 0 0
3836 77 1 0 50.41741014188372 3.2368969387338513 25.82819368274191 -1 0 0
3838 77 1 0 -6.984881776150049 4.720769676874161 26.44361542666679 0 0 0
3839 77 1 0 -6.189343428842752 5.181774987121261 26.872668919904445 0 0 0
3840 77 1 0 -5.154253952675196 5.700971294618467 27.016128737770458 0 0 0
3841 77 1 0 -3.9394234739243106 5.898106656059011 27.148656888518893 0 0 0
3845 77 1 0 0.44607568690565236 6.068073024976395 26.133139884207512 0 0 0
94 2 1 0 14.405546671609736 4.094183772256268 26.82460324854962 0 0 0
95 2 1 0 14.853534380572986 4.921473877134427 27.32683643416743 0 0 0
96 2 1 0 15.46702938859136 5.741259786720436 27.85899334408029 0 0 0
103 3 1 0 18.627321950976935 4.107952110492863 26.8949998819205 0 0 0
102 3 1 0 19.06166641410872 4.7639873048916845 26.24821685755852 0 0 0
4734 95 1 0 29.874184674451755 5.096235817254558 27.48263824738223 0 0 0
4733 95 1 0 29.082105968732616 5.722133272379811 27.12361940316884 0 0 0
4735 95 1 0 30.756772522812913 4.428884394066726 27.52809768836263 0 0 0
3837 77 1 0 51.111911825921645 4.062772642793348 26.128055683241666 -1 0 0
3842 77 1 0 -2.8079397785950735 6.164531295517474 27.017941831176444 0 0 0
3843 77 1 0 -1.738352412120675 6.332372029692885 26.909478685326423 0 0 0
3844 77 1 0 -0.5827430302708444 6.390187899864404 26.519401894999636 0 0 0
414 9 1 0 8.010034105720521 7.840961462819823 25.872484164053116 0 0 0
4731 95 1 0 27.216321953437156 6.875737947872202 26.50008207625098 0 0 0
4730 95 1 0 26.454361030230785 7.588735646650568 26.009422446434556 0 0 0
4732 95 1 0 28.06491941995099 6.3189653000760275 26.92942531434081 0 0 0
2250 45 1 0 -6.588606218884466 9.335870244810854 27.52911575877748 1 0 0
415 9 1 0 8.811647935396364 8.347782670152187 26.44944192611844 0 0 0
416 9 1 0 9.414782899928278 8.894840200669258 27.304935109519036 0 0 0
2134 43 1 0 42.2352379287954 9.913297501960015 27.849427413562005 0 0 0
2135 43 1 0 42.503279326808894 10.087074629764498 26.744456862113864 0 0 0
387 8 1 0 17.76813831001316 12.535401074631343 26.575967951345273 0 0 0
386 8 1 0 18.846251107872167 12.540240443085922 26.91479322195739 0 0 0
385 8 1 0 19.905111691653172 12.519022082851246 27.441836128045146 0 0 0
384 8 1 0 21.01002407933439 12.27740153570116 27.893401676961798 0 0 0
2183 44 1 0 31.21912961847777 12.013300934793966 27.641520462826264 0 0 0
2184 44 1 0 30.45070684933299 11.27973314915702 27.936774408854724 0 0 0
3863 78 1 0 -3.531842521998907 13.110470154070848 25.974128553386212 0 0 0
3864 78 1 0 -3.595294222875104 14.213795455744034 25.973968724260597 0 0 0
400 8 1 0 4.598564670133145 14.470392503287519 26.166256092047025 0 0 0
2182 44 1 0 32.06886608652372 12.81812012610605 27.769233255186535 0 0 0
2181 44 1 0 32.948759184330086 13.473898111204747 27.960996364735355 0 0 0
2702 55 1 0 45.66326584393676 13.347591956858029 26.420276899636495 0 0 0
2703 55 1 0 45.5304629903563 13.850300642534123 27.426861542006844 0 0 0
3066 62 1 0 -6.8528863976024015 16.132057501217172 27.995602638638452 1 0 0
3865 78 1 0 -3.628889253195602 15.4112692729202 25.89578851121873 0 0 0
4203 85 1 0 1.2062958286227607 16.91944414491099 26.62919611019483 0 0 0
4204 85 1 0 1.4523217957988526 16.67278252512945 27.694751796410337 0 0 0
3065 62 1 0 51.92904885377614 17.045241568181684 27.52443112896368 0 0 0
426 9 1 0 6.784505670766501 18.95241096432446 27.96251734689916 0 0 0
4686 94 1 0 11.972878513841003 18.756290416288678 26.62256905751736 0 0 0
4685 94 1 0 11.892963384194665 19.032838736965463 27.715333492089414 0 0 0
4653 94 1 0 16.42883828436452 18.41544846157283 26.464559346255747 0 0 0
4654 94 1 0 16.065983467305035 17.754313458868864 27.315337096508113 0 0 0
3064 62 1 0 51.50206131075284 18.024834493879855 27.51051989620286 0 0 0
3063 62 1 0 51.19724833568704 19.030699128492092 27.201080555373284 0 0 0
427 9 1 0 6.385607588262368 19.91655766695228 27.61223998362599 0 0 0
428 9 1 0 6.407065186454084 21.087327024828035 27.25771830742558 0 0 0
2166 44 1 0 45.13656113907302 19.448350256193642 26.223426382721268 0 0 0
2167 44 1 0 44.44472332297338 20.02696590372497 27.090653784132364 0 0 0
2168 44 1 0 43.72605941093673 20.40818273238691 27.86481212862937 0 0 0
3062 62 1 0 50.78943392533958 20.144955076584527 27.31362538371891 0 0 0
3061 62 1 0 50.24864032039692 21.105239628796376 27.59124682996399 0 0 0
472 10 1 0 0.2793285639355959 22.759930941638707 27.590042287515608 0 0 0
429 9 1 0 6.225670528239448 22.148687355913818 26.948972927583874 0 0 0
430 9 1 0 6.290127043707553 23.090830364579787 26.749629995069746 0 0 0
3060 62 1 0 49.74756597563744 22.125179577074558 27.988450802856853 0 0 0
3059 62 1 0 48.87422522593582 22.91337834318735 27.93369712058795 0 0 0
4323 87 1 0 -4.480942033482247 25.061720990609825 26.25188110954454 0 0 0
4322 87 1 0 -4.403485793601836 25.619683883607273 27.223392149393206 0 0 0
470 10 1 0 -0.088721829030186 24.786116343588798 26.34760159292176 0 0 0
471 10 1 0 -0.05738516378789484 23.71082893358716 26.931573271815573 0 0 0
469 10 1 0 -0.0839302200073401 25.725646623018147 25.851460346754237 0 0 0
432 9 1 0 6.773067265402312 25.219701189349035 25.875243107148435 0 0 0
431 9 1 0 6.454661010694105 24.16851048984489 26.428920923929294 0 0 0
514 11 1 0 11.096052059947883 23.76210654097121 26.25572442209727 0 0 0
513 11 1 0 11.509340077493336 24.552368416247866 27.053801956181317 0 0 0
512 11 1 0 11.95518722352022 25.32983218214581 27.683326350851964 0 0 0
1771 36 1 0 17.479442151480498 25.4349839246119 26.14157744701407 0 0 0
849 17 1 0 37.53147376655154 24.82006662874848 27.001163299753067 0 0 0
850 17 1 0 37.97337696883745 23.8938122462505 26.78740533993448 0 0 0
848 17 1 0 37.039020881098935 25.744940751773832 26.73270806460621 0 0 0
561 12 1 0 43.30088556145555 25.474750905033396 26.79873426599689 0 0 0
3057 62 1 0 47.70314877125978 25.021066050843878 27.955579937147373 0 0 0
1772 36 1 0 16.554983458426015 26.134832737336225 26.203357774887735 0 0 0
1773 36 1 0 15.840953524506102 26.956172282283234 26.348969955290528 0 0 0
1774 36 1 0 15.265734780341727 27.99897461425428 26.477136048710943 0 0 0
2213 45 1 0 24.386926980298664 26.535970306641566 27.634806175892074 0 0 0
2212 45 1 0 23.863405777503292 27.3280974400793 27.00584282811622 0 0 0
847 17 1 0 36.5391372121665 26.822778863607585 26.773005963363975 0 0 0
846 17 1 0 35.87563418782096 27.79156337039709 26.562874436360893 0 0 0
560 12 1 0 42.528282430228906 25.86068288940506 27.57105153639837 0 0 0
1776 36 1 0 14.53771655915301 30.14062635054202 26.890064967567238 0 0 0
1775 36 1 0 14.795107070747779 29.048194293654728 26.591321800184907 0 0 0
2211 45 1 0 23.431001419605266 28.142773982798445 26.306668704935223 0 0 0
844 17 1 0 34.40912566936696 29.36225425477655 26.399829443884975 0 0 0
845 17 1 0 35.19595476804262 28.598884521067482 26.694767758564304 0 0 0
1777 36 1 0 14.325491495394482 31.236569440779085 26.94276913800659 0 0 0
843 17 1 0 33.654760950592014 30.251623611917264 26.375395290554422 0 0 0
842 17 1 0 32.84156424417781 30.947236517800206 26.124022963966997 0 0 0
3158 64 1 0 39.57157879565088 31.274212969843237 26.441468666150445 0 0 0
3159 64 1 0 40.54982487473869 31.64663969369327 26.810146603190667 0 0 0
3160 64 1 0 41.565866900075115 31.99813762711931 27.129100482730166 0 0 0
3040 61 1 0 51.66302702885538 31.79569623636232 26.240105462901813 0 0 0
3041 61 1 0 51.271773649391605 32.03197199409547 27.2896765915681 0 0 0
1703 35 1 0 -2.0231306169407146 32.4892956956058 26.013486846600046 0 0 0
1704 35 1 0 -1.8179441555238267 33.45541156505888 26.52783838223415 0 0 0
1778 36 1 0 14.439825024674604 32.40338478126175 27.0235635727097 0 0 0
1779 36 1 0 14.477895644070022 33.36983438182323 27.53129551036215 0 0 0
1608 33 1 0 25.962259888841043 34.508244402327435 27.97770140647615 0 0 0
3161 64 1 0 42.4250815663985 32.64983234099986 27.55469827094152 0 0 0
3162 64 1 0 43.413287384521986 33.162699801252 27.6142235935687 0 0 0
3163 64 1 0 44.45311532286451 33.60816554270755 27.586838731608196 0 0 0
3164 64 1 0 45.57060368139173 33.95274767578244 27.63412747733479 0 0 0
3165 64 1 0 46.58030514175473 34.30524752663875 27.242479578114526 0 0 0
1705 35 1 0 -1.5587096746987532 34.679034121356004 26.68848743905559 0 0 0
1706 35 1 0 -1.2803820422629368 35.75429795282141 26.709965625520084 0 0 0
1707 35 1 0 -1.420148433558138 36.76642878362949 27.072868393357634 0 0 0
2203 45 1 0 21.258241642504295 36.40772836838962 26.6604938295307 0 0 0
2204 45 1 0 21.70869429087928 35.56908222270343 26.120197311184402 0 0 0
1609 33 1 0 26.915457363548636 34.907834414442796 27.730119692406337 0 0 0
1610 33 1 0 27.944543457291015 35.24727256586883 27.68187342354171 0 0 0
1611 33 1 0 28.955485599982246 35.82319889496703 27.587391559488104 0 0 0
1612 33 1 0 30.009088844184888 36.400167381050416 27.696862817372338 0 0 0
1564 32 1 0 39.46614553115415 36.09628440391666 25.90816161705511 0 0 0
1563 32 1 0 39.56165888624104 35.97616725221082 26.95354279822406 0 0 0
3166 64 1 0 47.49396079431745 34.66353020145588 26.840829459113003 0 0 0
3167 64 1 0 48.324690134742674 35.06296731249781 26.261192978403514 0 0 0
1708 35 1 0 -1.4174866622378315 37.958856975309914 27.25099988580902 0 0 0
1709 35 1 0 -1.4810409502467035 38.96257956992456 27.800544670871442 0 0 0
1679 34 1 0 2.586579843727503 38.876329980494354 27.035900344542217 0 0 0
2202 45 1 0 20.74011438307483 37.33078953148216 26.93581037454526 0 0 0
2201 45 1 0 20.506650195085466 38.35025550482989 27.13540630026573 0 0 0
1613 33 1 0 30.82019856718764 37.0540747145183 27.95150115998537 0 0 0
1680 34 1 0 2.269369753350696 39.62797053972452 26.292435104468844 0 0 0
1396 28 1 0 25.820550950668142 39.797882400729875 25.957229162301733 0 0 0
1397 28 1 0 25.247990988708864 40.34247258558676 26.80243102426594 0 0 0
1398 28 1 0 24.70258088887306 40.94854675981271 27.616827005452176 0 0 0
1583 32 1 0 44.81559783569203 40.20949740313879 27.056403157286773 0 0 0
1584 32 1 0 43.99096147237195 40.25576070644959 27.663157525088163 0 0 0
1582 32 1 0 45.650166778190275 40.05851862098706 26.14550381940468 0 0 0
4359 88 1 0 10.487350260941929 42.378773627237635 27.914797343521453 0 0 0
1737 35 1 0 16.845545995004155 43.29383438968526 26.765086392816695 0 0 0
1739 35 1 0 17.140423602234073 41.24047034765836 25.844425189705895 0 0 0
1738 35 1 0 17.105534146025796 42.25597422211733 26.32301533083141 0 0 0
4870 98 1 0 28.881839488126428 42.66633266797689 26.51989507856489 0 0 0
4869 98 1 0 28.928536445965026 42.45686610696128 27.587864201091065 0 0 0
1451 30 1 0 34.92483237742549 41.43872559297655 26.118743418507265 0 0 0
1452 30 1 0 35.987223837891655 41.608977560642316 26.150232878014094 0 0 0
1453 30 1 0 36.787680799293874 42.12509281893207 26.462351219128095 0 0 0
1454 30 1 0 37.46402447689103 42.92886039515431 26.766357927518182 0 0 0
3148 63 1 0 49.378561076292684 42.70924765825898 27.321087316711296 0 0 0
3149 63 1 0 49.49711777313691 42.6629862826878 26.16793836110398 0 0 0
4558 92 1 0 -6.205632613760411 45.517228764465855 27.8144046195394 0 0 0
4360 88 1 0 10.563627543582001 43.49242772727915 27.805518633608973 0 0 0
4361 88 1 0 10.674830570402724 44.53125002510309 27.55177858828393 0 0 0
1736 35 1 0 16.320764592879048 44.2847557104004 26.973968314026173 0 0 0
1735 35 1 0 15.663817690596966 45.10141730577567 27.305260757747902 0 0 0
1455 30 1 0 38.03871795362264 43.65270713310861 27.22964040915721 0 0 0
1456 30 1 0 38.79165116069536 44.27131878951467 27.50470439339145 0 0 0
1457 30 1 0 39.82873941474846 44.918045436028606 27.607266818097326 0 0 0
1458 30 1 0 40.84709713410277 45.349901273210534 27.822170228764865 0 0 0
4557 92 1 0 -6.286672960543853 45.86704604018515 26.69780315997042 0 0 0
4363 88 1 0 10.382121857174075 46.74264489231794 26.816752365972796 0 0 0
4362 88 1 0 10.527690808217255 45.65381603207014 27.25607879286582 0 0 0
1734 35 1 0 14.974122311508834 45.842642235788766 27.89801566966621 0 0 0
1150 23 1 0 30.135697202653592 46.37198173693067 26.45461832948317 0 -1 0
1149 23 1 0 31.09047851777326 46.64218132477082 26.113646287590843 0 -1 0
1459 30 1 0 41.882805859490524 45.823919183337075 27.977927627935316 0 0 0
4365 88 1 0 11.049783330625013 48.86868585665593 26.290528687016934 0 0 0
4364 88 1 0 10.642106104503402 47.915982043823625 26.582329129592974 0 0 0
1410 29 1 0 20.37281684942464 49.29790904047293 27.50630412413379 0 0 0
1411 29 1 0 21.163541603368586 48.99584226732913 26.78672881191596 0 0 0
1412 29 1 0 21.96422167629077 48.32136696006711 26.259677864646303 0 0 0
2890 58 1 0 42.28032801429594 49.89339662208685 26.525967805809692 0 0 0
1441 29 1 0 47.17063014484563 48.02358719979288 26.036508800203208 0 0 0
1442 29 1 0 47.608040495805774 48.54336535756353 26.82934883473894 0 0 0
1443 29 1 0 48.18192064495275 49.242705052513806 27.54183245418686 0 0 0
1158 24 1 0 35.56579376604539 51.76924650071132 27.692923836794197 0 -1 0
2889 58 1 0 41.65154648221656 49.93241863629433 27.379187324447052 0 0 0
4107 83 1 0 -4.962910353714442 -6.870571963841969 28.217673716295227 0 0 0
79 2 1 0 5.9067003669321085 -5.317897509363485 28.14631068257676 0 0 0
78 2 1 0 6.280194829622036 -5.5435657525999575 29.25199319957909 0 0 0
1800 36 1 0 23.30935110772421 -6.036821999865764 30.193943532513327 0 1 0
4089 82 1 0 -4.008243261033085 -2.761573272342076 29.62054694180784 0 0 0
366 8 1 0 19.987318741117335 -4.0085683588907735 28.932749241289166 0 0 0
367 8 1 0 20.204439085409167 -3.37883794442792 29.885457982720457 0 0 0
343 7 1 0 29.492338079715097 -3.8431687646808252 28.672042758269242 0 0 0
344 7 1 0 28.562435276270932 -3.759026947112463 29.46604087344705 0 0 0
4088 82 1 0 -3.5490763712917746 -2.3661935770424427 28.605635493964545 0 0 0
4128 83 1 0 3.409341738413075 -2.1758381931787314 28.510570757067327 0 0 0
4129 83 1 0 3.595607184417781 -2.452493487459636 29.51756543753282 0 0 0
111 3 1 0 13.580295974435316 -2.185315529497692 28.5290722386427 0 0 0
110 3 1 0 14.158711238686793 -1.4265552463461495 29.05956334951331 0 0 0
109 3 1 0 14.840534770726894 -0.5710073098741261 29.198017849485694 0 0 0
4742 95 1 0 34.23116251692455 -1.5954510892812899 29.81401449718831 0 0 0
4741 95 1 0 34.03975313359926 -0.6551281949943484 29.311066232019964 0 0 0
108 3 1 0 15.793131411472926 0.030000751684384683 29.38997420511924 0 0 0
107 3 1 0 16.62414667260574 0.6052184971089589 29.049245419578757 0 0 0
106 3 1 0 17.34336264032407 1.3854445350800375 28.567333499707207 0 0 0
4739 95 1 0 33.525577323279066 1.1387259930326536 28.085571573631558 0 0 0
4740 95 1 0 33.705409955163155 0.2651255900369525 28.801260602567215 0 0 0
2664 54 1 0 39.29800851498299 1.4861876260599665 28.693231687948234 0 0 0
2663 54 1 0 39.215527111535025 1.4972176405331783 29.865703210656356 0 0 0
17 1 1 0 4.611976362585312 2.6443806684626905 29.424263538885878 0 0 0
18 1 1 0 5.50808480551631 2.6001835374316613 28.711656148976857 0 0 0
19 1 1 0 6.428342214542706 2.7816655893917313 28.298777421133863 0 0 0
20 1 1 0 7.461971124077221 3.0850024152817106 28.338550389082528 0 0 0
21 1 1 0 8.59525512834393 3.0724479541521568 28.649815510008118 0 0 0
22 1 1 0 9.738916524217073 3.079606816142629 28.944940307512848 0 0 0
23 1 1 0 10.754799023050683 3.167239004001495 29.384239119061885 0 0 0
24 1 1 0 11.80780195169174 3.3446456630341492 29.824753469134606 0 0 0
97 2 1 0 16.145798997538716 6.580377038582322 28.34169330621444 0 0 0
98 2 1 0 16.71849259128389 7.602867277061677 28.549982867631762 0 0 0
4199 84 1 0 1.9262816010982708 10.492002767697077 29.54719953318504 0 0 0
4200 84 1 0 2.909267865959774 9.951712289981868 29.689450673548222 0 0 0
417 9 1 0 9.792812675200063 9.743707559733323 28.08686356213515 0 0 0
99 2 1 0 17.28113721358087 8.500153501322787 29.026106937247054 0 0 0
100 2 1 0 17.934332795938666 9.088086341879443 29.544327400123265 0 0 0
381 8 1 0 22.841896227711814 10.031930172225326 29.532944863096848 0 0 0
380 8 1 0 23.223591518215688 9.152345270910738 30.027801140239813 0 0 0
2133 43 1 0 41.95748245348591 9.816802099949864 28.829981050965728 0 0 0
2132 43 1 0 41.55467302763216 9.379683161998264 29.760730325562857 0 0 0
2247 45 1 0 49.879335271829234 10.157649548016629 29.4728663157123 0 0 0
2249 45 1 0 51.62385345498689 9.63018377739119 28.013182866208002 0 0 0
2248 45 1 0 50.68117818920002 9.917956425819156 28.659538294678182 0 0 0
4196 84 1 0 -0.9164554760031132 12.468110838922946 29.846826109971072 0 0 0
4198 84 1 0 0.8944515738491136 11.007198395834926 29.52804030974466 0 0 0
4197 84 1 0 -0.10584799217549469 11.589816235100676 29.712499300868814 0 0 0
418 9 1 0 9.810781141330857 10.801121254510823 28.564502403034947 0 0 0
419 9 1 0 9.7322244637843 11.872424901375966 28.8189384938171 0 0 0
383 8 1 0 21.702444499910747 11.705371879248364 28.57457225932284 0 0 0
382 8 1 0 22.24877516051397 10.909386841187722 29.16402952935735 0 0 0
2187 44 1 0 27.955232357567706 10.907955753893134 29.787866237180815 0 0 0
2185 44 1 0 29.511626997183395 10.80955722194803 28.329991824970154 0 0 0
2186 44 1 0 28.759389459858944 10.806530588014022 29.085948694623266 0 0 0
2246 45 1 0 48.98259565159182 10.522218359233367 30.18961060563956 0 0 0
4193 84 1 0 -3.154498848107071 14.61254557429834 30.03224358748258 0 0 0
4195 84 1 0 -1.494734418922896 13.368882577736569 29.544760601448484 0 0 0
4194 84 1 0 -2.3638928306598914 14.094945457336218 29.473449858140366 0 0 0
421 9 1 0 9.35173795814403 14.053184781465962 28.85076330825675 0 0 0
420 9 1 0 9.770162596973226 13.002505416420254 28.956825605266424 0 0 0
2180 44 1 0 33.756132904135164 14.186382760993077 28.06910954949706 0 0 0
2179 44 1 0 34.68383736624767 14.868372234158416 28.431357872010675 0 0 0
2704 55 1 0 45.5730586306885 14.635377995081356 28.190361548148037 0 0 0
3068 62 1 0 51.767571631054594 14.459007485654936 29.54126778098982 0 0 0
4205 85 1 0 1.8129497117012192 16.339232476918877 28.701392904543493 0 0 0
4206 85 1 0 2.199188566056648 16.056644588142106 29.809275188924122 0 0 0
423 9 1 0 8.315606238540298 16.11672337030091 28.59166206437079 0 0 0
424 9 1 0 7.614807162806128 16.89503744047335 28.414937517231976 0 0 0
422 9 1 0 8.72743593535804 15.037162332447853 28.786195576044225 0 0 0
4657 94 1 0 16.090943818780453 15.565424960418593 29.994889106005623 0 0 0
4656 94 1 0 16.02819004503697 16.428148862423896 29.177572225822303 0 0 0
4655 94 1 0 15.83896860478885 17.04955684257917 28.25892121263058 0 0 0
2178 44 1 0 35.472507715500235 15.688781923278366 28.630588862408977 0 0 0
2177 44 1 0 35.97573434910721 16.613198818161504 28.77662927164442 0 0 0
2705 55 1 0 45.66953225725548 15.591434303907613 28.86378427294627 0 0 0
2706 55 1 0 45.857050103942065 16.3425439468505 29.7828704072705 0 0 0
3067 62 1 0 51.8938216975513 15.15985874750878 28.65684968025569 0 0 0
425 9 1 0 7.3610547060059615 18.04200886993145 28.225684862483988 0 0 0
4684 94 1 0 11.671879361464187 19.211525891896866 28.846463451527708 0 0 0
4683 94 1 0 11.53221401628948 19.169658915524536 30.06026558155448 0 0 0
2176 44 1 0 36.69078669206137 17.373969965301132 29.334993590712084 0 0 0
2175 44 1 0 37.18404510348756 18.250911780730327 29.811359707514043 0 0 0
2174 44 1 0 37.75906985695357 19.21889876770364 30.042613096934303 0 0 0
474 10 1 0 0.17093973604794693 21.197455633831353 29.18660995214877 0 0 0
475 10 1 0 0.316757062324229 20.741986178466046 30.165773538260886 0 0 0
2173 44 1 0 38.616166524992614 19.94571878223101 29.958467248241615 0 0 0
2171 44 1 0 40.67101508817798 20.713998569773338 29.416947287977166 0 0 0
2172 44 1 0 39.65363990437103 20.525334694426142 29.919974867159045 0 0 0
2170 44 1 0 41.69409709739416 20.81402087743122 28.91883754167683 0 0 0
2169 44 1 0 42.65297331936516 20.608676290370912 28.264894656767137 0 0 0
473 10 1 0 0.24352458703107274 21.900262179262782 28.385852377069206 0 0 0
511 11 1 0 12.59765137729854 25.76943528347288 28.40823205432208 0 0 0
2214 45 1 0 24.94906638493656 25.746339766121185 28.03041140603271 0 0 0
2215 45 1 0 25.449360922739906 25.07053121957453 28.69520362415565 0 0 0
2216 45 1 0 25.843009126015126 24.179844874077194 29.39069368586523 0 0 0
3058 62 1 0 48.24133008111772 23.899496153023545 28.088261236212492 0 0 0
4321 87 1 0 -3.989728739058537 26.084667007571877 28.261704270032737 0 0 0
4320 87 1 0 -3.4187977779471703 26.427692482815925 29.211230492968493 0 0 0
510 11 1 0 13.315534963515375 26.02391742806429 29.194030831536132 0 0 0
509 11 1 0 14.091268324713486 26.301960382231666 30.037204890423435 0 0 0
557 12 1 0 41.14170581655805 27.74100140877568 30.08884175429268 0 0 0
558 12 1 0 41.53106022666965 26.96154650989697 29.198204701567853 0 0 0
559 12 1 0 41.88054617947422 26.235755927515786 28.417207008499563 0 0 0
3054 62 1 0 47.00030685855929 28.000446228745563 29.115356024223097 0 0 0
3055 62 1 0 47.078135652829545 27.06177845927533 28.54865224890573 0 0 0
3056 62 1 0 47.31682164765674 25.971818159085064 28.180464062495805 0 0 0
3053 62 1 0 46.96013164663786 28.89343290880359 29.787664615695242 0 0 0
1604 33 1 0 22.524980735138865 32.23873081262201 30.11917742957139 0 0 0
3042 61 1 0 50.79408615571782 32.22509582494438 28.310043445731136 0 0 0
4351 88 1 0 8.64096337594195 33.8966749061706 28.86482572108394 0 0 0
1780 36 1 0 14.645245747351549 34.35310238387474 28.054015781291614 0 0 0
1605 33 1 0 23.357313290867936 32.793113841608736 29.667664578445336 0 0 0
1606 33 1 0 24.13865774701497 33.32246916813973 28.904125331262296 0 0 0
1607 33 1 0 25.023944470437506 33.81850386295326 28.30894531363579 0 0 0
3043 61 1 0 50.56708234464521 32.77977801300649 29.26810396307421 0 0 0
4352 88 1 0 8.916695851734826 34.85958086044853 28.767378984299185 0 0 0
4353 88 1 0 9.299931387559097 35.81607318244946 28.75892114951179 0 0 0
1781 36 1 0 14.563193585802999 35.26777495517293 28.603320263008847 0 0 0
1782 36 1 0 14.75017154122332 36.26294263240059 29.153056952324444 0 0 0
1562 32 1 0 39.805399331137004 35.95438195274901 28.136688407229432 0 0 0
1561 32 1 0 39.97491132986683 35.91342144666164 29.154542214437516 0 0 0
1677 34 1 0 2.554452552435603 37.792252577113175 29.078631372482487 0 0 0
1678 34 1 0 2.5678773862258257 38.27696993608805 28.092415570769198 0 0 0
1676 34 1 0 2.8060232265769773 37.52002149645121 30.191888367668884 0 0 0
4354 88 1 0 9.768161118618684 36.878251160843845 28.533201701885794 0 0 0
4355 88 1 0 10.136110904359386 37.99928877947058 28.642502076695546 0 0 0
1783 36 1 0 15.092502404481074 37.12112442879107 29.64006883960736 0 0 0
1784 36 1 0 15.582967480595965 38.17736310679967 29.812607437624965 0 0 0
1614 33 1 0 31.52743334372966 37.808371033075964 28.30478972510111 0 0 0
1615 33 1 0 31.998412629363624 38.81311065908992 28.50950881599402 0 0 0
1710 35 1 0 -1.4208797562939186 39.98841537881037 28.191456111150625 0 0 0
1711 35 1 0 -1.5142821264547293 40.952068996140184 28.71030773432526 0 0 0
4356 88 1 0 10.101330967676098 39.06452643573869 28.330570698443484 0 0 0
4357 88 1 0 10.131426362970277 40.140419676775295 28.240233145111212 0 0 0
1785 36 1 0 16.14652205593165 39.25144745887711 29.76387696818404 0 0 0
1786 36 1 0 16.860464319230292 39.9908048234453 30.057275745910037 0 0 0
1616 33 1 0 32.34984699573922 39.77106149702241 28.75286527584458 0 0 0
1617 33 1 0 32.623491419919304 40.73294444602903 29.358549498753586 0 0 0
1587 32 1 0 41.068174085957374 40.07593366346506 29.704899158690033 0 0 0
1586 32 1 0 41.94057178010885 40.037950691590424 28.91179334692854 0 0 0
1585 32 1 0 43.04933472102781 40.09238031977314 28.35577535639865 0 0 0
1712 35 1 0 -1.616892504223101 41.84908860531396 29.30483133978527 0 0 0
1713 35 1 0 -1.7296498124236737 42.93513795333304 29.592215920950906 0 0 0
4358 88 1 0 10.207157077896056 41.32153692148259 28.26708618347715 0 0 0
1400 28 1 0 23.242129115978823 41.40491851533494 28.994413224667802 0 0 0
1399 28 1 0 24.01653310413458 41.25481308507042 28.365728158415482 0 0 0
4868 98 1 0 28.86475450785361 42.232260087480725 28.7611707987453 0 0 0
4867 98 1 0 28.97531197469344 42.2456600400717 29.93598980217806 0 0 0
1618 33 1 0 33.08349509323586 41.50083521518873 30.107538950251072 0 0 0
3147 63 1 0 49.17810552990263 42.836226845465035 28.528279024322565 0 0 0
3146 63 1 0 48.93070200049242 43.06468390508077 29.6089643060994 0 0 0
4559 92 1 0 -6.236524416843444 44.97892580108895 28.858735384606163 0 0 0
4560 92 1 0 -5.830584471137142 44.33263417387033 29.689822293785266 0 0 0
1714 35 1 0 -1.6638707422298393 44.03042499875915 29.766873377207467 0 0 0
1715 35 1 0 -1.4785224096997995 45.1961266627209 29.75070922492055 0 0 0
1716 35 1 0 -1.2877720174725797 46.25846919048901 29.918886647120384 0 0 0
1733 35 1 0 14.34731921413102 46.53305151299409 28.418343385731347 0 0 0
1731 35 1 0 13.033907625142442 47.70096045337478 29.793447322972963 0 0 0
1732 35 1 0 13.91234389637989 47.277881093052855 29.12942839551173 0 0 0
1460 30 1 0 42.821807329599686 46.04050976143829 28.5274809468374 0 0 0
1461 30 1 0 43.676781276902766 46.38252436848365 29.03551915678192 0 0 0
1462 30 1 0 44.34484731603825 46.64544699515267 29.88465324582705 0 0 0
1408 29 1 0 18.831832301973627 49.56640781414198 29.25049484700991 0 0 0
1409 29 1 0 19.638768383062004 49.487336899351625 28.343649839720275 0 0 0
1153 24 1 0 31.916223190142357 48.822968592751856 30.129563979667203 0 -1 0
1154 24 1 0 32.26631795174067 49.76409751561009 29.569539528203816 0 -1 0
2885 58 1 0 38.45835679900263 49.221495046984565 30.187481766299967 0 0 0
2886 58 1 0 39.11609114380903 49.754023969795576 29.492952486719258 0 0 0
2887 58 1 0 39.96759481243414 49.79478741470679 28.750608024087086 0 0 0
4106 83 1 0 -4.653917874449845 52.04820411335394 29.317799256124843 0 -1 0
1155 24 1 0 32.80143778367278 50.55562205989839 28.98821739400985 0 -1 0
1156 24 1 0 33.66285053749906 51.23365888717858 28.71078404425331 0 -1 0
1157 24 1 0 34.60372681017502 51.614951111432575 28.225982148988482 0 -1 0
2888 58 1 0 40.86999137626534 49.94210098737586 28.03048201018101 0 0 0
1444 29 1 0 48.630288757449875 49.99447286921965 28.34034298124153 0 0 0
1445 29 1 0 48.992820424688354 50.89487140748482 29.04815587783478 0 0 0
1446 29 1 0 49.56668983420615 51.61451952136636 29.602514657923727 0 0 0
77 2 1 0 6.4393551851008715 -5.551552866693573 30.384753916609743 0 0 0
76 2 1 0 6.9413132663450225 -5.426879538931082 31.487496278789582 0 0 0
1799 36 1 0 23.42114200885231 -6.851504377246788 30.75173358622926 0 1 0
1447 29 1 0 49.941407208972485 -6.69001063638577 30.421242564335667 0 1 0
1448 29 1 0 50.118260621818656 -5.854933444825701 31.088779553551372 0 1 0
1449 29 1 0 50.43189510933074 -4.948928878748415 31.748553510852503 0 1 0
4090 82 1 0 -4.011130424251749 -3.158512732341379 30.659346743704244 0 0 0
4091 82 1 0 -3.7697344390928045 -3.4855137920593946 31.66194394854483 0 0 0
4130 83 1 0 3.4443314349232974 -2.7918909754273025 30.56272855347335 0 0 0
4131 83 1 0 3.107304106680246 -3.26572482065387 31.580285586443654 0 0 0
2350 47 1 0 10.848981264080855 -4.144310478494518 31.66574359090516 0 0 0
2349 47 1 0 11.53346130252432 -4.34695386599826 32.35770021127791 0 0 0
368 8 1 0 20.44604951953781 -2.91279602873267 30.955167661736617 0 0 0
346 7 1 0 27.06871286873237 -3.5969494007693505 31.052705365135658 0 0 0
347 7 1 0 26.286968585782606 -3.47174594564866 31.91986296805843 0 0 0
345 7 1 0 27.897323622830953 -3.7198403609795037 30.36422660828939 0 0 0
4744 95 1 0 34.27229741043604 -3.47539346340001 31.16688453628519 0 0 0
4745 95 1 0 34.403662618072666 -4.114152177409595 32.089879932610245 0 0 0
2642 53 1 0 44.23803029007347 -2.6334361401376607 32.25379771132676 0 0 0
369 8 1 0 20.796665530156417 -2.20723076597049 31.69871245942996 0 0 0
370 8 1 0 21.263790404394086 -1.258308252125806 32.29197131303457 0 0 0
4743 95 1 0 34.29397222433449 -2.513080442385512 30.38776262856554 0 0 0
2641 53 1 0 45.263693536313205 -2.497116397170309 31.6412665406171 0 0 0
2640 53 1 0 46.17086665537068 -1.9769475427434688 31.194955003511286 0 0 0
2639 53 1 0 47.17665994042598 -1.545727635606445 31.150952649419022 0 0 0
2638 53 1 0 47.97986799265143 -0.9007375880914111 30.885373882367194 0 0 0
2637 53 1 0 49.0390287445846 -0.4412725178808126 30.7374838938037 0 0 0
2662 54 1 0 38.80414862330351 1.5404666361012245 30.90884094398417 0 0 0
2636 53 1 0 49.834646925389386 0.3102722864460231 30.505927253394646 0 0 0
2635 53 1 0 50.91876914678264 0.7490087549396658 30.6318176078206 0 0 0
2634 53 1 0 51.7612626041466 1.384550021036358 30.906986931781642 0 0 0
2632 53 1 0 -6.335994756223258 3.341623434689904 31.651483993708577 1 0 0
2633 53 1 0 -6.665592187968022 2.3280379422748063 31.28951536781006 1 0 0
13 1 1 0 1.3362050555998126 2.3557440907522413 32.31505300424133 0 0 0
16 1 1 0 3.8186961169097278 2.743538353699128 30.215300850193326 0 0 0
15 1 1 0 3.1633958591606013 2.7106574529564433 31.07925667872533 0 0 0
14 1 1 0 2.256933138818346 2.5224177670489647 31.67936844092956 0 0 0
25 1 1 0 12.863404161964608 3.662344988480676 30.39088795185821 0 0 0
374 8 1 0 22.685086419791492 3.0541553492388505 32.30204635552062 0 0 0
2661 54 1 0 38.41790752229991 1.7783078084034414 31.855419211336283 0 0 0
2631 53 1 0 -6.148667983121432 4.407252267518262 31.979229610079265 1 0 0
26 1 1 0 13.712107235999378 3.9705297805377 30.982589617597693 0 0 0
27 1 1 0 14.629377157433826 4.01313483497886 31.690371541471404 0 0 0
375 8 1 0 22.93726763376261 4.167741077943509 32.12447939542017 0 0 0
376 8 1 0 23.27330277283754 5.037085686586775 31.7296359366103 0 0 0
377 8 1 0 23.733075699723667 6.020269655052748 31.197023941676996 0 0 0
379 8 1 0 23.261087383368736 8.106871954655015 30.63299935435036 0 0 0
378 8 1 0 23.740872282027116 7.130018127076619 31.054849650062053 0 0 0
2129 43 1 0 39.87764200081187 7.844761580269146 32.274314290552276 0 0 0
2130 43 1 0 40.5346227234806 8.331605776994097 31.475686165398777 0 0 0
2131 43 1 0 41.10877984264313 8.989259984679602 30.72934733758131 0 0 0
4641 93 1 0 7.951246632182378 12.359428603638504 32.34314557140104 0 0 0
2190 44 1 0 25.801735437431322 12.248877742165844 32.03088543817134 0 0 0
2188 44 1 0 27.27307951456965 11.160697701678542 30.714759891294953 0 0 0
2189 44 1 0 26.403024476007353 11.674873969851904 31.282584064387564 0 0 0
2242 45 1 0 45.37592840560739 12.570778144229259 31.715363589438162 0 0 0
2244 45 1 0 46.94791370157246 11.241306009532583 30.754233036531293 0 0 0
2243 45 1 0 46.08995699642989 11.809716111314183 31.24537854931132 0 0 0
2245 45 1 0 47.961693617744665 10.720539135385891 30.50543281837368 0 0 0
4659 94 1 0 16.67809688173537 14.065185153778856 31.37777469455204 0 0 0
4658 94 1 0 16.408440626895686 14.817071278137155 30.699844689638283 0 0 0
4660 94 1 0 17.137582792566697 13.210580473284935 31.892201394768115 0 0 0
2241 45 1 0 44.63012300877115 13.106862524346564 32.2992420441605 0 0 0
3070 62 1 0 51.169491084266255 13.566487454986444 31.534764457155262 0 0 0
3069 62 1 0 51.44496729216206 14.062834516116325 30.544630798203094 0 0 0
4191 84 1 0 -4.322277122580284 16.029373693353413 31.142511529834977 0 0 0
4192 84 1 0 -3.795553678395927 15.351491919535881 30.466236312639275 0 0 0
4190 84 1 0 -4.303177851361955 16.825363971875255 31.860847443676292 0 0 0
4207 85 1 0 2.7441905111786964 15.864630266989497 30.78067558794202 0 0 0
4208 85 1 0 3.1493245873639784 15.444402451702475 31.75119588887072 0 0 0
2707 55 1 0 45.991123374066994 16.957391149169748 30.67197191865301 0 0 0
4682 94 1 0 11.576969943300933 18.86015557727521 31.152400516167752 0 0 0
4681 94 1 0 11.735345839927566 18.53165857884983 32.238517492936815 0 0 0
4780 96 1 0 24.983033044944126 19.12891993939259 30.569230470006232 0 0 0
4781 96 1 0 23.825619966945496 19.135858927415732 30.46855232881963 0 0 0
4779 96 1 0 26.10889115582282 18.866345542897108 30.496604006923818 0 0 0
4778 96 1 0 27.238319961238425 18.583207150511882 30.505969293227466 0 0 0
4777 96 1 0 28.332187337250677 18.292113141691416 30.467224872205698 0 0 0
4776 96 1 0 29.387108931306823 18.013424876828488 30.360294613329632 0 0 0
4775 96 1 0 30.55191839160926 18.070090755311345 30.421086498009533 0 0 0
4774 96 1 0 31.547386101004836 18.11101810269124 30.92715799588268 0 0 0
4773 96 1 0 32.575664571089526 17.965888403336457 31.4876810441322 0 0 0
4772 96 1 0 33.5746744236641 17.689827329918444 31.86401712978141 0 0 0
2708 55 1 0 46.248309998858126 17.39608917821843 31.754785859491605 0 0 0
476 10 1 0 0.4838353614967192 20.406123212223473 31.19012099954087 0 0 0
477 10 1 0 1.0497155224111203 20.102723508358483 32.15719988313908 0 0 0
4788 96 1 0 16.44105736729966 21.389671786151947 31.392553525587658 0 0 0
4786 96 1 0 18.493790158961023 20.601156134732488 31.25604912749595 0 0 0
4787 96 1 0 17.43221810095592 20.920370982493107 31.203903393913656 0 0 0
4784 96 1 0 20.646682337821172 20.053671409357193 31.0277922825724 0 0 0
4785 96 1 0 19.59660167206945 20.35774135773582 31.115310297171998 0 0 0
4782 96 1 0 22.799167972612686 19.277833837887872 30.57600032418154 0 0 0
4783 96 1 0 21.716211779437135 19.64973772405952 30.821806653125535 0 0 0
4792 96 1 0 12.172545661643289 22.98081842609903 31.975936273453076 0 0 0
4793 96 1 0 11.17715527017781 23.41472717375128 31.720109760795495 0 0 0
4791 96 1 0 13.197883457937833 22.448540758198128 31.7898472229215 0 0 0
4790 96 1 0 14.282634863655115 22.090131449996704 31.6495694741753 0 0 0
4789 96 1 0 15.372513382749789 21.839257506209755 31.546863412632636 0 0 0
2217 45 1 0 26.18221319515539 23.597016613812215 30.235847232348046 0 0 0
2218 45 1 0 26.466871618406103 22.785041113809275 30.9740226643302 0 0 0
2219 45 1 0 27.11812410602349 22.422621508507603 31.818324858437254 0 0 0
4796 96 1 0 8.060278665776378 24.407997267236205 32.102115786207484 0 0 0
4794 96 1 0 10.158129618170125 23.76870896138222 31.719041708693233 0 0 0
4795 96 1 0 9.02300721668259 24.08766090879817 31.937461667465424 0 0 0
4580 92 1 0 49.31898860240665 24.91530077042868 32.165526342911335 -1 0 0
4579 92 1 0 49.976044114716466 25.439379095378914 31.593207103371448 -1 0 0
4576 92 1 0 -6.733016795243088 27.797213986870233 31.108454519563413 0 0 0
4319 87 1 0 -3.094662804422982 26.649921130489652 30.258314331021705 0 0 0
4317 87 1 0 -1.5649634413904023 26.816618488429 31.939078639845125 0 0 0
4318 87 1 0 -2.393973065127246 26.786545457051506 31.205981978907666 0 0 0
508 11 1 0 14.723184883729818 26.57307377111476 30.906212920359867 0 0 0
507 11 1 0 15.531738443755268 26.636304957687592 31.803606711567298 0 0 0
4850 97 1 0 29.39901766230214 27.578551609017804 31.966290250137764 0 0 0
4578 92 1 0 50.82567036105627 26.218103194352917 31.1486375074289 -1 0 0
4577 92 1 0 51.6274288037434 27.009653810493216 30.98588276580825 -1 0 0
4575 92 1 0 -6.1860062617962654 28.752040784681135 31.191589648645056 0 0 0
4574 92 1 0 -5.6362932678372415 29.62308552325984 31.453991715081905 0 0 0
555 12 1 0 40.051464755593685 28.967921362425436 31.549048547446745 0 0 0
556 12 1 0 40.58966926672825 28.45500675968849 30.68913503631063 0 0 0
3052 62 1 0 47.05436541930425 29.897535965349075 30.36548537072646 0 0 0
4573 92 1 0 -5.288915423240225 30.714409100387 31.716523918928598 0 0 0
4572 92 1 0 -5.067593181864268 31.833901388670782 32.01160348384148 0 0 0
1601 33 1 0 20.79983512424652 30.516799621442566 32.044916085158206 0 0 0
1602 33 1 0 21.388813117349216 31.021691105884614 31.42791511272167 0 0 0
1603 33 1 0 21.882407500057365 31.738512266060226 30.932749938278405 0 0 0
3051 62 1 0 46.88760236295123 30.947788137585 30.88793297547958 0 0 0
4571 92 1 0 -5.066786855924796 32.89701794066103 32.37202110140448 0 0 0
4814 97 1 0 16.142888153589737 32.720973338379736 32.37708320201243 0 0 0
4813 97 1 0 16.933889431827982 33.526673462332 32.26855599394426 0 0 0
4812 97 1 0 17.59337473197869 34.52095563259084 32.28628177293213 0 0 0
3044 61 1 0 50.5580936916149 33.36126737705615 30.275657053161147 0 0 0
3045 61 1 0 50.077606283268786 34.192156921294675 30.89225455246555 0 0 0
4811 97 1 0 18.335225358231803 35.294273743327025 31.90111444487763 0 0 0
4810 97 1 0 18.975807121199352 36.00570033959575 31.471736850593828 0 0 0
1560 32 1 0 40.24956112734825 35.96467121869374 30.260336407839667 0 0 0
1559 32 1 0 40.77739999590471 35.997233581871704 31.344564597139854 0 0 0
3046 61 1 0 49.82360438815023 35.15652016889982 31.47815945517277 0 0 0
3047 61 1 0 49.72410124947812 36.21320515187846 31.964180037722745 0 0 0
1674 34 1 0 3.8192986915301876 37.17534917213624 32.28832962328088 0 0 0
1675 34 1 0 3.3084701148634466 37.401614486264755 31.283044944232888 0 0 0
4809 97 1 0 19.730056727852002 36.80752958306113 31.126286975149576 0 0 0
4808 97 1 0 20.697438959195328 37.42045603997633 31.01040265639149 0 0 0
4807 97 1 0 21.69030568959937 37.82965900558567 31.18096926611388 0 0 0
4806 97 1 0 22.730872437203622 38.131407288372635 31.315428282564426 0 0 0
4805 97 1 0 23.919821339731133 38.17592136706106 31.424277808129098 0 0 0
4804 97 1 0 25.047516548236683 37.85011598243493 31.453698177404128 0 0 0
4803 97 1 0 26.222191513389674 37.852430754722924 31.608557697731314 0 0 0
4802 97 1 0 27.354685910578457 37.9466785382509 31.537389526247697 0 0 0
4801 97 1 0 28.370076849523507 38.094700076588154 31.59371554649317 0 0 0
3048 61 1 0 49.68203668851028 37.346739166593075 32.162156510993924 0 0 0
4564 92 1 0 -5.16137046886479 40.52391897458071 31.73964780642779 0 0 0
4565 92 1 0 -5.002673213256554 39.457280417399744 32.19170774222553 0 0 0
1787 36 1 0 17.506246777373445 40.80899615268214 30.50860650869599 0 0 0
1590 32 1 0 38.60440068536157 39.509719458861944 31.754774461556078 0 0 0
1588 32 1 0 40.33019900081472 40.097081502548 30.5044778525456 0 0 0
1589 32 1 0 39.46053299252627 39.68157512087686 30.98770620539969 0 0 0
4562 92 1 0 -5.396861682489214 42.42232740348367 30.73879016578071 0 0 0
4563 92 1 0 -5.404876577286825 41.43531665077936 31.182533691569382 0 0 0
1801 37 1 0 2.225710904811415 41.93621181972773 30.289389373159974 0 0 0
1802 37 1 0 2.853227784896651 42.381034699745584 30.949882309022797 0 0 0
1803 37 1 0 3.650998038728672 42.974668794618474 31.282041427878877 0 0 0
1788 36 1 0 18.059606660407947 41.49795248641653 31.13879324352176 0 0 0
1789 36 1 0 18.294957209977213 42.43907752407163 31.709688318452915 0 0 0
4865 98 1 0 27.883654839749738 42.365774828974665 31.969068867788614 0 0 0
4866 98 1 0 28.41718519067361 42.322799611484626 30.940270715159 0 0 0
1619 33 1 0 33.13854879833884 42.09847868802108 31.108099789702784 0 0 0
1620 33 1 0 33.07006908288063 42.34082392625546 32.18180783317575 0 0 0
4561 92 1 0 -5.6227063049443755 43.399666525442065 30.255813822044093 0 0 0
1804 37 1 0 4.488299337697887 43.64604914447551 31.850384537970385 0 0 0
1805 37 1 0 5.432022021377787 44.01983302933951 32.38315634170977 0 0 0
1790 36 1 0 18.977082144207333 43.39584179900142 32.03901753614967 0 0 0
1791 36 1 0 19.38753479870579 44.42282868112029 32.116852703804 0 0 0
1792 36 1 0 20.215351378213033 45.249164099433465 32.302639639938576 0 0 0
3145 63 1 0 48.577440237291256 43.381934387567874 30.57302338920479 0 0 0
3144 63 1 0 48.33898752947025 43.678110766963805 31.66323609012983 0 0 0
1717 35 1 0 -0.6351187534017366 47.14159814135004 30.382950095755117 0 0 0
1793 36 1 0 20.697348298909183 46.2755287237558 32.137885278631764 0 0 0
1794 36 1 0 21.070076984622016 47.25844899558771 32.168785649978496 0 0 0
1151 24 1 0 31.50317469709933 46.79866854758538 30.631576977991546 0 -1 0
2882 58 1 0 36.40918582709713 47.53203151769445 31.942481170263665 0 0 0
1463 30 1 0 44.84909368805278 47.21443498397315 30.666604580122204 0 0 0
1718 35 1 0 0.10248449198189967 47.904124593128564 30.660848924294797 0 0 0
1719 35 1 0 0.9389162633367039 48.62274811823422 30.982669070619277 0 0 0
1720 35 1 0 1.8739071118464228 49.10123330149211 31.327030858817864 0 0 0
1721 35 1 0 2.987602177857368 49.26930273582433 31.686612361662714 0 0 0
1722 35 1 0 4.079376569108669 49.33236415338891 31.9418156254117 0 0 0
1723 35 1 0 5.178747616972022 49.341404450663426 32.1370564234836 0 0 0
1724 35 1 0 6.305003607670658 49.5272429989099 32.07392337949692 0 0 0
1725 35 1 0 7.364529022357039 49.7436409224453 32.01325895618035 0 0 0
1727 35 1 0 9.388374539363184 49.54127340812256 31.665778849286202 0 0 0
1728 35 1 0 10.390056670495474 48.9060213301213 31.550285254211715 0 0 0
1730 35 1 0 12.052931392779602 48.01164832596146 30.3503392838701 0 0 0
1729 35 1 0 11.302172548911816 48.52703166774324 30.866792011140227 0 0 0
1407 29 1 0 18.126760493222424 49.477666240336546 30.21866716958113 0 0 0
1406 29 1 0 17.63425967633947 49.79131317116635 31.202097758499757 0 0 0
1795 36 1 0 21.646067553195557 48.26028144185739 31.872799917653705 0 0 0
1796 36 1 0 22.1276495285305 49.1238319901093 31.430412213639986 0 0 0
1152 24 1 0 31.620502533001936 47.788672529824325 30.40319100096476 0 -1 0
2883 58 1 0 37.135166059004206 48.05113542356442 31.48036770047768 0 0 0
2884 58 1 0 37.82774999990636 48.513293289011386 30.734888031114973 0 0 0
1464 30 1 0 45.57546441699216 47.95561624384621 31.050305795238458 0 0 0
1465 30 1 0 46.15445450257235 48.70500647416342 31.660779633340226 0 0 0
1466 30 1 0 46.9425680039839 49.25347881414856 32.2443232932472 0 0 0
4103 83 1 0 -5.516409784737415 50.59222788057818 32.16615119145123 0 -1 0
4104 83 1 0 -5.024209850260313 51.32453534512532 31.39642372641151 0 -1 0
4105 83 1 0 -4.618452074546663 51.63977186396931 30.38038698138206 0 -1 0
1726 35 1 0 8.470535527533002 49.95638334329228 31.868338868618764 0 0 0
1405 29 1 0 16.99577856121514 50.10210106835626 32.08502446464809 0 0 0
1797 36 1 0 22.580335422282836 50.138602701709544 31.21186763893772 0 0 0
1798 36 1 0 22.93741051710708 51.24433852331134 31.133319858395694 0 0 0
75 2 1 0 7.282937985083016 -5.4095608283195284 32.55427243459387 0 0 0
74 2 1 0 7.714112204126133 -5.092485653742341 33.624961660605884 0 0 0
2346 47 1 0 14.537543417387555 -4.870257649600101 33.963147781333475 0 0 0
2344 47 1 0 16.816358356363914 -5.1728037760769885 34.38796962659839 0 0 0
2345 47 1 0 15.660370811854582 -4.887942823417665 34.279652749066884 0 0 0
2343 47 1 0 17.994609566357568 -5.359768701435137 34.36823629743145 0 0 0
4747 95 1 0 34.57486750930543 -5.5833781935345 33.82630617406157 0 0 0
4094 82 1 0 -5.204489987023846 -3.9957991507679056 34.43730886905035 0 0 0
4093 82 1 0 -4.510253050094884 -3.979872150506387 33.62083845597088 0 0 0
4092 82 1 0 -3.9800608107016546 -3.898059888404659 32.68365905882476 0 0 0
4134 83 1 0 1.7191635249148127 -3.998530128475565 34.49115719904308 0 0 0
4132 83 1 0 2.847874295260253 -3.7273515447036116 32.4773638073782 0 0 0
4133 83 1 0 2.332847572500602 -3.8795231253428235 33.543634658609875 0 0 0
2348 47 1 0 12.283509854589582 -4.4206738153075085 33.16236417064857 0 0 0
2347 47 1 0 13.483342590138696 -4.591576260399495 33.60518063337521 0 0 0
348 7 1 0 25.610318878446165 -3.0985162455023323 32.90138488444387 0 0 0
349 7 1 0 24.896828557147177 -2.803180341885602 33.66189343298518 0 0 0
4746 95 1 0 34.386789465403105 -4.757110064330502 33.08965226323455 0 0 0
2646 53 1 0 40.268697283034726 -2.852472486266889 34.31666245107204 0 0 0
2645 53 1 0 41.30613882698998 -2.8469057387236045 33.829459803312425 0 0 0
2643 53 1 0 43.35728774539337 -2.6877531789181908 32.81904937290126 0 0 0
1450 29 1 0 50.56595520446232 -4.429734571823378 32.56874622738445 0 1 0
350 7 1 0 24.422050784842472 -2.231995623848274 34.4093482661435 0 0 0
2644 53 1 0 42.35154636387812 -2.5179700738388666 33.35098129577444 0 0 0
2425 49 1 0 7.84964194992217 1.733381320899565 33.72671588244116 0 0 0
2424 49 1 0 8.390991604969496 0.9971031725970724 34.47511455376672 0 0 0
371 8 1 0 21.615938947103697 -0.1370388270003367 32.442710697503585 0 0 0
372 8 1 0 22.016374465812966 1.0173504379112626 32.52266202048415 0 0 0
2351 48 1 0 27.81521973233663 0.3199277017345421 32.509594396216485 0 0 0
2352 48 1 0 28.075572664371503 0.19656351660526972 33.53558171810369 0 0 0
2353 48 1 0 28.13628652481692 -0.28263751764731604 34.54804340632761 0 0 0
11 1 1 0 -0.2294962259695848 2.1995604831194826 33.97387887729365 0 0 0
12 1 1 0 0.5586724447480657 2.336379801102378 33.166805149176156 0 0 0
2426 49 1 0 7.363974473163622 2.5902721016695907 33.349319268822796 0 0 0
2427 49 1 0 6.636892750384894 3.5025814283954375 33.214250534706615 0 0 0
28 1 1 0 15.406876403449175 3.8894612421989114 32.45576175267351 0 0 0
29 1 1 0 16.27847491293459 3.6928122477975966 33.11382735750011 0 0 0
30 1 1 0 17.109489502440322 3.193297558991342 33.652881050349556 0 0 0
31 1 1 0 17.959928598285675 2.9706106101001577 34.240992792254445 0 0 0
373 8 1 0 22.260373102247847 2.154145883482193 32.63937556182116 0 0 0
2659 54 1 0 38.10903218849295 1.9056446268902456 34.24911628390279 0 0 0
2660 54 1 0 38.42158568511386 1.8162375689089294 33.10929892519029 0 0 0
2630 53 1 0 -5.878834257009226 5.34947918930125 32.47656632997483 1 0 0
2428 49 1 0 6.109901029596932 4.516943486510178 33.452634408700156 0 0 0
2429 49 1 0 5.377823223829227 5.340947903578043 33.48625271329072 0 0 0
2629 53 1 0 -5.438687187797778 6.231930184435205 33.006518193712324 1 0 0
2628 53 1 0 -5.079978993475265 7.141494684000398 33.43487862565053 1 0 0
2627 53 1 0 -4.951555468714913 8.162110333740666 34.027910473258984 1 0 0
2431 49 1 0 3.917262197222785 6.930837098506917 33.901888068331644 0 0 0
2432 49 1 0 3.354248503567687 7.834805881936475 33.7175453714738 0 0 0
2430 49 1 0 4.728249357449109 6.236254439893813 33.82077990687958 0 0 0
2125 43 1 0 36.206760259186616 7.118514838757706 34.21324395901536 0 0 0
2124 43 1 0 35.15538376080885 7.504047681166424 34.45575108101309 0 0 0
2127 43 1 0 38.31741459819197 7.129814524908832 33.60168826413899 0 0 0
2126 43 1 0 37.27733597997151 7.234542868897989 33.92942765689359 0 0 0
2128 43 1 0 39.193301931988685 7.5292601336302445 33.07854851955974 0 0 0
2626 53 1 0 -4.710952934106579 9.122058276914517 34.458667446362504 1 0 0
2433 49 1 0 2.8162935975227454 8.904521817747579 33.71175881701788 0 0 0
2434 49 1 0 2.120299569178723 9.777860290719435 33.98700236412714 0 0 0
4643 93 1 0 8.221082145039787 10.256653975748467 33.0698826401131 0 0 0
4645 93 1 0 9.179597592391946 8.704919311959259 34.11104793349593 0 0 0
4644 93 1 0 8.621151651923139 9.368995138046206 33.486657023471025 0 0 0
2435 49 1 0 1.469723250935528 10.716072328790956 34.14859022259977 0 0 0
2436 49 1 0 0.6769587661439461 11.387279161029303 34.350377186857735 0 0 0
4642 93 1 0 7.975394962426196 11.341196220764953 32.57303596691489 0 0 0
4661 94 1 0 17.026711367171817 12.342074705029843 32.582402194716884 0 0 0
4663 94 1 0 16.805123804153357 10.942828315407894 34.14025135413939 0 0 0
4662 94 1 0 17.079130087514397 11.651644169996766 33.26739080688544 0 0 0
4640 93 1 0 8.09947766811921 13.528964399005615 32.43417650634939 0 0 0
4639 93 1 0 7.921514439450597 14.492329333574993 32.911469043310504 0 0 0
2191 44 1 0 25.329606248889476 13.016243575348575 32.614188702884945 0 0 0
2193 44 1 0 24.616414197211398 14.390210634288517 34.20458701146835 0 0 0
2192 44 1 0 24.95923294566492 13.595868031614412 33.42010019820135 0 0 0
4768 96 1 0 35.910972546750436 14.80879499123167 34.44156846836221 0 0 0
2239 45 1 0 43.068092964075554 14.400321783653961 33.50003975306263 0 0 0
2240 45 1 0 43.75160157283876 13.712472579570056 32.84997006521771 0 0 0
3072 62 1 0 50.411880249891524 13.050105564543133 33.608396152198125 0 0 0
3071 62 1 0 50.921440355179776 13.3664126025357 32.557805640949624 0 0 0
4210 85 1 0 3.2514873187691373 15.277438247300875 33.96314789995338 0 0 0
4209 85 1 0 3.115104321891474 15.285501858687637 32.914143179659604 0 0 0
4638 93 1 0 7.800490134369496 15.417653620133615 33.597387039037685 0 0 0
4637 93 1 0 7.665266613336965 16.04200533375008 34.53099826508724 0 0 0
4771 96 1 0 34.40121722957387 17.03385596978432 32.407454011465845 0 0 0
4770 96 1 0 35.048994404414785 16.33325068217284 33.06771772895857 0 0 0
4769 96 1 0 35.376586857004845 15.61169182102124 33.790775738776546 0 0 0
2238 45 1 0 42.623424903247425 15.11157346625394 34.15793952762317 0 0 0
4187 84 1 0 -5.17379748198001 19.01047626295021 33.955299163809954 0 0 0
4188 84 1 0 -4.726377490272624 18.24274363850615 33.33428803761554 0 0 0
4189 84 1 0 -4.622940585447782 17.535546851104417 32.59322983193714 0 0 0
4679 94 1 0 11.91897607078229 17.935806568534844 34.488864109266714 0 0 0
4680 94 1 0 11.84237143206876 18.454629743809505 33.360067885565364 0 0 0
2709 55 1 0 46.46137307405665 17.88452800384343 32.756426322081616 0 0 0
2710 55 1 0 46.446706199806606 18.100714961601927 33.83089194216464 0 0 0
478 10 1 0 1.736927520898858 20.014487892476975 33.01120819420263 0 0 0
479 10 1 0 2.458886599851379 20.321573061476435 33.97473813475955 0 0 0
2221 45 1 0 28.27864788985163 21.22597222057234 33.25987183789283 0 0 0
2222 45 1 0 28.81704933216669 20.50193312967061 33.976140352128134 0 0 0
2223 45 1 0 29.593606325687176 19.806723256658994 34.520009921208604 0 0 0
2220 45 1 0 27.775754706662468 21.753325864788085 32.470220576261845 0 0 0
4799 96 1 0 5.0537669945368195 25.75124327332731 33.14940646246855 0 0 0
4797 96 1 0 7.138424932037983 25.066586373257543 32.4793099154334 0 0 0
4798 96 1 0 6.1409753484463705 25.416839286682922 32.74857858077732 0 0 0
1548 31 1 0 40.56154228072268 24.70748908429614 34.24626286690679 0 0 0
1550 31 1 0 42.436140368190195 23.713215802148014 34.00823744169929 0 0 0
1549 31 1 0 41.660525446626046 24.352882517264806 34.16469195789577 0 0 0
4581 92 1 0 48.687470817535534 24.672277690988544 33.03498638378939 -1 0 0
4582 92 1 0 47.968819158424736 24.431995310567753 33.8747350463099 -1 0 0
4316 87 1 0 -0.7626271280096435 27.36384351619277 32.62633949676617 0 0 0
4315 87 1 0 -0.13007277082091154 27.56229426554905 33.52389707978371 0 0 0
4314 87 1 0 0.45866985720207454 27.587189913689965 34.463803144121236 0 0 0
4800 96 1 0 4.038304251293058 25.895262701752554 33.336717314720154 0 0 0
506 11 1 0 16.251007362607037 26.762011012469195 32.75292406996531 0 0 0
505 11 1 0 17.05525498037119 27.22381574576689 33.40238926991754 0 0 0
504 11 1 0 17.812712217091736 27.68014187889237 34.094470978256425 0 0 0
2100 42 1 0 25.106962256682127 26.99288234521334 33.229961325088674 0 0 0
2099 42 1 0 25.158830231887695 26.812328867562975 34.187841091357434 0 0 0
4820 97 1 0 10.389464094706915 29.881146501186056 34.44776686637176 0 0 0
4819 97 1 0 11.445562830132905 30.045531061828285 33.90557954988559 0 0 0
4849 97 1 0 29.118212144766602 28.255257546323527 32.54796693931139 0 0 0
4848 97 1 0 28.78951919964295 28.93830065892458 33.32590600748187 0 0 0
4847 97 1 0 28.5984814443134 29.70429129503954 34.263729549688236 0 0 0
554 12 1 0 39.73761916182868 29.565929785677866 32.53268348466349 0 0 0
553 12 1 0 39.57717901167431 30.13494704743837 33.489216438043265 0 0 0
4818 97 1 0 12.564860846531854 30.24213294912908 33.5469545465882 0 0 0
4816 97 1 0 14.42439780727713 31.21965380728093 32.685943331609685 0 0 0
4817 97 1 0 13.512167086164565 30.6838504252141 33.29283987115025 0 0 0
4815 97 1 0 15.28077728015074 31.9467731655331 32.436537340904394 0 0 0
4570 92 1 0 -5.191115033606718 34.07738001666085 32.69844628035402 0 0 0
1650 33 1 0 6.82468192000368 32.80973962745472 33.985534994398414 0 0 0
1649 33 1 0 7.676604694875197 33.338662698157634 33.872161651304296 0 0 0
1648 33 1 0 8.50151445203523 34.14174350763136 33.863307853047715 0 0 0
4568 92 1 0 -5.050698517918238 36.295254687075214 33.008970750177674 0 0 0
4569 92 1 0 -5.060496197178133 35.185146483773366 32.885136234658 0 0 0
1878 38 1 0 -0.5740233259433203 35.989279386045766 33.58475185234611 0 0 0
1879 38 1 0 -0.46656403787908884 35.020990885271836 34.29324087859169 0 0 0
1647 33 1 0 9.411706695388595 34.79443557269133 33.95138738904617 0 0 0
1646 33 1 0 10.238981373922417 35.48287364204504 33.962793149627736 0 0 0
1645 33 1 0 11.227332563052911 35.872459516405236 34.10090259344785 0 0 0
1644 33 1 0 12.269124457956194 36.22846893768701 34.35303032512423 0 0 0
1558 32 1 0 40.9470852662885 36.04379727769572 32.47961079457083 0 0 0
1557 32 1 0 41.048967872562756 35.67748705521311 33.46141038286036 0 0 0
4567 92 1 0 -4.928928008336598 37.48528487213232 32.99726113745949 0 0 0
4566 92 1 0 -4.829794951632509 38.50023886540589 32.64406349591713 0 0 0
1876 38 1 0 -1.2362222104777136 38.14696771499927 33.77575471334229 0 0 0
1877 38 1 0 -0.8729327032384205 37.07136213352956 33.46833451356396 0 0 0
1673 34 1 0 4.5013954802947165 37.20359164331687 33.1951645241137 0 0 0
1672 34 1 0 5.2511426318920345 36.930107673075895 34.065741932812074 0 0 0
1595 32 1 0 34.19586284721791 37.706567876942785 34.146496004181145 0 0 0
1596 32 1 0 33.08749326460141 37.61827486273548 34.37709821010903 0 0 0
1594 32 1 0 35.222023787637355 38.176728263098596 33.93945591454916 0 0 0
1593 32 1 0 36.26618960076492 38.44791457660515 33.8461469874596 0 0 0
3049 61 1 0 49.60868460154017 38.42972258736863 32.60616021677448 0 0 0
1875 38 1 0 -1.4264328522538476 39.16089785107111 34.21091667269386 0 0 0
1591 32 1 0 37.81044497304225 39.43428134747131 32.55538583796829 0 0 0
1592 32 1 0 37.19516668191387 38.97862299330103 33.30951448085295 0 0 0
3050 61 1 0 49.17254836766103 39.20423867051894 33.135473004462916 0 0 0
4864 98 1 0 27.000128035991118 42.611789205253835 32.61134340199519 0 0 0
4863 98 1 0 26.228189598616837 43.08980053620572 33.28956137835844 0 0 0
1622 33 1 0 32.55605629896466 42.55120736653261 34.275520980353825 0 0 0
1621 33 1 0 32.84885272901346 42.69794596151556 33.25489622096676 0 0 0
1806 37 1 0 6.303089492215801 44.15475944713079 32.94446425713937 0 0 0
1807 37 1 0 7.318929261942177 44.49945463554802 33.27265937535106 0 0 0
1808 37 1 0 8.288351169405074 44.92355534332769 33.60534692065207 0 0 0
1809 37 1 0 9.126186618643434 45.35286422918521 34.22865370520666 0 0 0
4861 98 1 0 25.227751149621742 44.70127475511062 34.53244909917771 0 0 0
4862 98 1 0 25.842857192956032 43.8633429843145 34.1083200538834 0 0 0
3142 63 1 0 47.53210206750152 44.54325782355816 33.585714489845834 0 0 0
3141 63 1 0 46.92868211130492 45.18840983858596 34.32907509458641 0 0 0
3143 63 1 0 47.976993934604145 43.989500746244865 32.73292734074673 0 0 0
2879 58 1 0 33.92409681896658 46.69349288895602 34.13624434123355 0 0 0
2880 58 1 0 34.77252524945469 46.8618829667443 33.34791241041041 0 0 0
2881 58 1 0 35.60246098656205 47.084883301063094 32.543715189184105 0 0 0
4101 83 1 0 -6.702364609134333 49.66329534248312 33.650026433946074 0 -1 0
4102 83 1 0 -6.101458623696452 50.13184434526755 33.003615591012846 0 -1 0
1402 29 1 0 14.517133943882579 50.43302550044814 34.501893746679485 0 0 0
1404 29 1 0 16.200858932360138 50.360414426593024 32.876113060716726 0 0 0
1403 29 1 0 15.175565188974437 50.362359894536276 33.47506939348398 0 0 0
1467 30 1 0 47.69225262591631 49.96902995980604 32.75185248777852 0 0 0
1468 30 1 0 48.34150984983773 50.30954380888195 33.63244967283569 0 0 0
4137 83 1 0 -0.8071737065622069 -4.904035861645478 36.47058855850836 0 0 0
73 2 1 0 8.059529282342085 -4.982541293656461 34.674560558495365 0 0 0
2342 47 1 0 19.110761126415944 -5.504326002561893 34.734010434258515 0 0 0
2341 47 1 0 20.234559370798966 -5.581292255932007 34.70831186938513 0 0 0
2340 47 1 0 21.285157974348298 -5.9077516114040005 34.621804569867734 0 0 0
2339 47 1 0 22.38035479025396 -6.284678755500648 34.88528768315231 0 0 0
2338 47 1 0 23.44169913379447 -6.510341996695592 34.96231552656265 0 0 0
2337 47 1 0 24.576377026897564 -6.530087495254253 35.12543918335447 0 0 0
2336 47 1 0 25.76330678961102 -6.505515601370842 35.120653239562344 0 0 0
2335 47 1 0 26.81668785631103 -6.428481653576041 35.42461585379591 0 0 0
2334 47 1 0 27.897291150474153 -6.29500595621574 35.864665501241724 0 0 0
2333 47 1 0 28.952883759095144 -6.077684299498004 36.23733903765021 0 0 0
4748 95 1 0 35.02083285749852 -6.293042380393841 34.60539955182588 0 0 0
4749 95 1 0 35.20937274079334 -6.898998839900885 35.4604652336986 0 0 0
4095 82 1 0 -5.949759021377799 -4.167879585295787 35.3276159981435 0 0 0
4096 82 1 0 -6.667648861117802 -4.331001897818618 36.2006131809656 0 0 0
4135 83 1 0 0.8650722472782476 -4.345332975831403 35.08641841168028 0 0 0
4136 83 1 0 0.0824426504920002 -4.665563830668706 35.77951351111463 0 0 0
72 2 1 0 8.658777072819872 -4.6782791761949465 35.625050217849626 0 0 0
71 2 1 0 9.268053591250329 -4.577251152565208 36.61357933907684 0 0 0
2648 53 1 0 38.71801334531655 -2.8975941148974176 35.90038302664686 0 0 0
2647 53 1 0 39.62813482907835 -2.9433279198514715 35.12368813597072 0 0 0
2354 48 1 0 28.359081221099274 -0.7748523264891952 35.61245082651881 0 0 0
2355 48 1 0 28.60443885442238 -1.3135205332878852 36.71069041507989 0 0 0
2422 49 1 0 10.07272791782646 0.48903758293748406 35.73445713179932 0 0 0
2423 49 1 0 9.18636709544718 0.7309511087751577 35.20701021555024 0 0 0
2421 49 1 0 10.98748523320913 0.4923189819582109 36.26127487180687 0 0 0
2420 49 1 0 11.961281670647441 0.11278978473534056 36.664920306718244 0 0 0
34 1 1 0 20.06790157391577 1.0603983762882385 36.092835889073726 0 0 0
35 1 1 0 20.474576152498557 0.22712964475101635 36.69477818184207 0 0 0
2271 46 1 0 45.395113277905715 1.4260584913271546 36.237682288518855 0 0 0
10 1 1 0 -0.9444390445087758 2.1842341379133874 34.86074877353062 0 0 0
9 1 1 0 -1.7050501018794635 2.319871804357122 35.64370317134567 0 0 0
8 1 1 0 -2.4604087010181064 2.856429260531849 36.38639711491176 0 0 0
32 1 1 0 18.88260039184921 2.483088237141717 34.73303647152049 0 0 0
33 1 1 0 19.642324792031022 1.9663619737406852 35.379877885717335 0 0 0
2658 54 1 0 37.858010545008874 2.229072346996436 35.32874185318112 0 0 0
2657 54 1 0 37.669662679273095 2.540117797373236 36.40047265926322 0 0 0
2269 46 1 0 45.01092829303714 3.163581794643541 35.06969348039896 0 0 0
2270 46 1 0 45.19250293787812 2.2471452941800507 35.53473443819114 0 0 0
2027 41 1 0 21.435420548320533 5.337326040083815 36.55940149644357 0 0 0
2028 41 1 0 22.08679227520267 4.452100077464935 36.711547544232594 0 0 0
2268 46 1 0 44.901685367624076 4.254717029040387 34.87048647372872 0 0 0
2267 46 1 0 44.77811065499514 5.38669946566433 34.714126650330854 0 0 0
4646 93 1 0 9.593237853604913 8.03259727654225 34.98816179156977 0 0 0
4647 93 1 0 9.981273750680355 7.411094626928413 35.77124945752198 0 0 0
4648 93 1 0 10.47208051180596 6.641354279076686 36.398549876378276 0 0 0
2025 41 1 0 20.45241296742867 7.408964303199761 36.43837646591422 0 0 0
2026 41 1 0 20.81005663093527 6.325544072999446 36.5041358073316 0 0 0
2121 43 1 0 32.349758504078956 8.206592687662903 36.023205508536186 0 0 0
2123 43 1 0 34.120267155296595 7.641872162515519 34.89735150160861 0 0 0
2122 43 1 0 33.245572235000225 8.075413458070443 35.426403557286875 0 0 0
2266 46 1 0 44.678468478808384 6.5565335534157505 34.957162767476184 0 0 0
2265 46 1 0 44.774560389326304 7.449187084571838 35.584814034045806 0 0 0
2625 53 1 0 -4.864962919771878 10.128487038835871 35.0085646676035 1 0 0
4664 94 1 0 16.405405464926922 10.278487653115882 34.904674624859624 0 0 0
4665 94 1 0 15.763872688298136 9.702322708206271 35.61306418105553 0 0 0
4666 94 1 0 15.153220835611865 9.369424482140172 36.50799197942309 0 0 0
2024 41 1 0 20.118947002393384 8.435019889356182 36.3640829311614 0 0 0
2023 41 1 0 20.03708926558761 9.661503349886308 36.329786159139445 0 0 0
2264 46 1 0 44.56451669531475 8.39628977857259 36.206879951279504 0 0 0
2263 46 1 0 44.13126328574078 9.277134154111867 36.74982806202728 0 0 0
2624 53 1 0 -5.224033033386107 10.88677682798545 35.770939176219095 1 0 0
2623 53 1 0 -5.575801355490647 11.334649608414786 36.744093028139744 1 0 0
2437 49 1 0 -0.11053243486658754 12.14606875725069 34.6753007910869 0 0 0
2022 41 1 0 19.8991079642017 10.737241628632502 36.73333075813108 0 0 0
4765 96 1 0 36.78249289229877 11.827873817047962 35.678723949428075 0 0 0
4764 96 1 0 37.10458947958219 10.83376028548395 36.28355883946658 0 0 0
2440 49 1 0 -2.151402253032379 14.610432912499842 36.11161212322196 0 0 0
2439 49 1 0 -1.4972489603742192 13.753686492983888 35.580867466944376 0 0 0
2438 49 1 0 -0.7619786230823844 13.02094412495878 35.00528202213081 0 0 0
2019 41 1 0 18.573935462454607 13.918370376872929 36.316977548969064 0 0 0
2020 41 1 0 19.25684480108928 12.967845874737325 36.61237657184669 0 0 0
2018 41 1 0 17.922975580487282 14.773486726908235 36.0378508839497 0 0 0
4767 96 1 0 36.16367253728272 13.861692948797337 34.77697648167818 0 0 0
4766 96 1 0 36.45506307668739 12.84089049304 35.380708439814946 0 0 0
3074 62 1 0 49.342317819850486 13.14385784056345 35.60928181786599 0 0 0
3075 62 1 0 48.73653817408244 13.367753471493486 36.5318637994867 0 0 0
3073 62 1 0 49.97331849025857 13.004696495546785 34.63459573738091 0 0 0
2441 49 1 0 -2.6665219747230355 15.4184697886925 36.67987052448446 0 0 0
4211 85 1 0 3.3131851624267186 15.520134145140743 35.11549149191851 0 0 0
4212 85 1 0 3.34506228463747 15.903444331857978 36.168445886013735 0 0 0
4636 93 1 0 7.439556003273004 16.733653110183592 35.315003945311695 0 0 0
4677 94 1 0 11.798904476766454 16.900106674482096 36.42592050034502 0 0 0
2016 41 1 0 16.721396031535647 16.665943762912708 35.83342231017769 0 0 0
2017 41 1 0 17.217273566620314 15.647819321687354 35.879078674704715 0 0 0
2194 44 1 0 24.44815310392422 15.050042620536642 35.005054334748834 0 0 0
2195 44 1 0 24.06381428829011 15.88662993990957 35.765045068402465 0 0 0
2196 44 1 0 23.774139676044786 16.51896856270828 36.59646693547428 0 0 0
2235 45 1 0 40.882842664091314 16.50161222675194 36.49972502553351 0 0 0
2237 45 1 0 42.23525199309515 15.60152350236712 35.03275246003244 0 0 0
2236 45 1 0 41.49532889834468 16.123499425211772 35.70343638769426 0 0 0
4635 93 1 0 7.511738998862765 17.31993552879735 36.36834156296567 0 0 0
4678 94 1 0 11.922815837161446 17.49013872754447 35.44652296759191 0 0 0
2015 41 1 0 16.59493027238653 17.739752134900304 36.188965212248036 0 0 0
2014 41 1 0 16.449200687562172 18.896953792975307 36.49708213236946 0 0 0
2225 45 1 0 31.296622488860148 19.20205494114614 35.867514160832584 0 0 0
2226 45 1 0 32.069059967447366 18.859443471521363 36.57166453589954 0 0 0
2712 55 1 0 45.47777300077071 18.70084840893655 35.738761257013756 0 0 0
2711 55 1 0 45.97739058126415 18.380924335031196 34.803155682891706 0 0 0
4186 84 1 0 -5.4140004272867905 19.604313368542847 34.86379126985312 0 0 0
4185 84 1 0 -5.708064759549754 20.40014539818589 35.52477758337254 0 0 0
4184 84 1 0 -5.9111441712571935 21.33658947407523 36.261197649507764 0 0 0
480 10 1 0 2.876036598160568 20.618526915145353 34.93504443134952 0 0 0
481 10 1 0 3.5502340286022185 21.03752160055027 35.73717047789413 0 0 0
2224 45 1 0 30.496948779778133 19.523625282780493 35.1115101534891 0 0 0
2713 55 1 0 44.89294052288739 19.274428144928095 36.59029344658026 0 0 0
482 10 1 0 4.487942500717296 21.68516415790822 36.149051854214854 0 0 0
484 10 1 0 5.8178911384908965 23.297617721863478 36.68197325602558 0 0 0
483 10 1 0 5.223204430847885 22.479682886241896 36.33119753189235 0 0 0
1546 31 1 0 38.72315742912677 25.550088117422185 34.98658705035599 0 0 0
1547 31 1 0 39.60553072546106 24.94856132155384 34.605920875867774 0 0 0
4584 92 1 0 47.25504091408998 24.193870684665924 35.8645494849348 -1 0 0
4583 92 1 0 47.53254322265237 24.23792072769621 34.881839799245505 -1 0 0
4313 87 1 0 0.9997940794192846 27.570809519603916 35.5208800962113 0 0 0
4312 87 1 0 1.5441183191563146 27.662236690219917 36.44257944156793 0 0 0
2098 42 1 0 25.303931768984068 26.52218850111924 35.261588745122566 0 0 0
2097 42 1 0 25.78527675403849 26.425598474439273 36.205831195328315 0 0 0
1543 31 1 0 35.872671782772635 27.39655421614719 35.77924672817357 0 0 0
1542 31 1 0 34.959108526470885 27.730590954091582 36.236329586626404 0 0 0
1545 31 1 0 37.800651028694006 26.309885206721322 35.314482907651595 0 0 0
1544 31 1 0 36.94050172880353 27.03823625815194 35.44105179829382 0 0 0
4821 97 1 0 9.477459622639913 29.705681018616154 35.091286896594184 0 0 0
4822 97 1 0 8.85295756179283 29.97630810794013 35.9946516977092 0 0 0
503 11 1 0 18.446133853183962 28.29676128398871 34.66043001975138 0 0 0
502 11 1 0 18.831413033971927 28.777265957140298 35.56485572769109 0 0 0
501 11 1 0 19.440925297006167 29.09244445884909 36.30734411894527 0 0 0
4846 97 1 0 27.79182510371822 30.085044810659692 34.94353862777358 0 0 0
4845 97 1 0 27.012506157046655 30.11394992920095 35.71276835565487 0 0 0
4844 97 1 0 26.471359188887526 30.33874600222552 36.735077722648114 0 0 0
552 12 1 0 39.699858799118644 30.525121907632055 34.61370976963445 0 0 0
551 12 1 0 39.87411757647022 30.84151405429291 35.65605774487824 0 0 0
3099 62 1 0 46.822042421894395 32.256421745158924 35.46059855112929 0 0 0
3098 62 1 0 46.39885887940379 31.56422687944443 36.22223179322939 0 0 0
1881 38 1 0 -0.018780918790576428 33.628636552832326 35.94501828071004 0 0 0
1880 38 1 0 -0.3363478378683399 34.36671288001054 35.16151187904108 0 0 0
499 10 1 0 18.45107371405301 32.74252632589211 36.43356431670251 0 0 0
500 10 1 0 19.264489749864566 33.11530816358454 36.04703667437132 0 0 0
3100 62 1 0 47.59461485255639 32.51588956734121 34.82946354548202 0 0 0
1643 33 1 0 13.328823096445085 36.23824047207389 34.71293760145893 0 0 0
1642 33 1 0 14.395215148517986 36.31682700846121 34.99030132616192 0 0 0
1641 33 1 0 15.46725197055754 36.62778088622073 35.30589313535787 0 0 0
1640 33 1 0 16.57065562430638 36.52274744163304 35.74355699487053 0 0 0
1556 32 1 0 41.20544401757462 35.57530363383719 34.57828641092999 0 0 0
1555 32 1 0 41.25100426192412 35.27281099351521 35.62977262663327 0 0 0
1671 34 1 0 5.960966647232201 36.944827464464126 34.84974511120159 0 0 0
1670 34 1 0 6.448071517010024 37.025030138347354 35.84449027184147 0 0 0
1669 34 1 0 7.26388922105387 37.11096626026373 36.69674638173974 0 0 0
1639 33 1 0 17.418511857953213 36.875800416187786 36.35617192803575 0 0 0
1599 32 1 0 30.286714176331763 37.133278204678554 36.0686196575082 0 0 0
1598 32 1 0 31.09409644317123 37.32862501196654 35.35579327354025 0 0 0
1597 32 1 0 32.06043911858297 37.52586000074706 34.79408008175977 0 0 0
1874 38 1 0 -1.2984053690627375 40.13435258955376 34.76043370861169 0 0 0
3126 63 1 0 39.187342001819765 41.0155489141871 36.25436359406331 0 0 0
3125 63 1 0 39.95153258758223 40.24850331017802 36.45060010846008 0 0 0
3124 63 1 0 40.921653756833884 39.55926759819828 36.57635051798646 0 0 0
1873 38 1 0 -1.2604094603599296 41.16802801348684 35.205470780257954 0 0 0
1872 38 1 0 -0.9611303929125309 42.11155429571626 35.82197328628665 0 0 0
1871 38 1 0 -0.7784999885514621 42.960422725030405 36.6035216671498 0 0 0
1623 33 1 0 32.16568969961735 42.21793292999257 35.200413543052576 0 0 0
1624 33 1 0 31.3740411693815 41.88712077621975 36.08633175441996 0 0 0
3127 63 1 0 38.45576323978929 41.859707806234226 36.056049256941066 0 0 0
3128 63 1 0 37.996956056609804 42.7827646725293 36.01291346452529 0 0 0
1810 37 1 0 10.00396799971885 45.38150450059057 34.850113193367385 0 0 0
1811 37 1 0 10.801799983468248 45.428120664273976 35.56417284473542 0 0 0
4860 98 1 0 24.661466497333304 45.49870953681561 35.00630227079805 0 0 0
3129 63 1 0 37.80422968669426 43.92036010074656 35.88444546091134 0 0 0
3130 63 1 0 37.86000416933473 45.08161447323856 35.95765974527589 0 0 0
1812 37 1 0 11.630685356164626 45.700205633939284 36.214676798596074 0 0 0
4857 98 1 0 22.094838180303885 47.24164157196654 36.444758879560965 0 0 0
4858 98 1 0 23.046972779941807 46.66178913789941 36.02567148003563 0 0 0
4859 98 1 0 23.942058434035047 46.221144401304755 35.526719226344106 0 0 0
2877 58 1 0 32.14212748028541 46.89153408208019 35.56439809557644 0 0 0
2876 58 1 0 31.154592554731238 46.81795306866611 36.05390109226837 0 0 0
2875 58 1 0 30.349296666129405 46.80326230796343 36.65784820919459 0 0 0
2878 58 1 0 32.999205248558404 46.78963219264864 34.80107812980156 0 0 0
3131 63 1 0 38.172474217853996 46.06971662097815 35.89817972086414 0 0 0
3132 63 1 0 38.647722240709825 47.06017697201797 35.66400356906061 0 0 0
3133 63 1 0 39.59636928684868 47.6753830703821 35.30804381758506 0 0 0
3138 63 1 0 44.61914687632687 47.51966617403302 35.19235226647836 0 0 0
3139 63 1 0 45.70168809938783 46.87951100784326 35.27686498947059 0 0 0
3140 63 1 0 46.3889581041594 45.9325512835269 34.94968142682171 0 0 0
3134 63 1 0 40.443713138947196 48.293956727384526 35.13351729717258 0 0 0
3135 63 1 0 41.582411167324416 48.469053633823584 34.87808938764871 0 0 0
3136 63 1 0 42.59133418556249 48.33063950963547 35.02233897286863 0 0 0
3137 63 1 0 43.82658643157871 48.18561483520641 35.24487949505339 0 0 0
1401 29 1 0 13.997410735295551 50.54826502322867 35.33062599363251 0 0 0
4750 95 1 0 35.39011632633293 51.444315702027076 36.272594093417474 0 -1 0
1469 30 1 0 48.822892673644056 50.3727443747794 34.72902297963884 0 0 0
1470 30 1 0 49.236804183810754 50.499331388608795 35.71172156915729 0 0 0
1471 30 1 0 49.71612309854665 50.405126692242554 36.67157718376334 0 0 0
4140 83 1 0 -3.3445791819856416 -5.718483904233364 38.650889056581505 0 0 0
4138 83 1 0 -1.7595853704170903 -5.14022194819134 37.02369483430523 0 0 0
4139 83 1 0 -2.5890411192574425 -5.535125433069289 37.698455122565974 0 0 0
69 2 1 0 10.986001239518856 -4.921181252845423 37.72831326078122 0 0 0
68 2 1 0 11.914744061868257 -5.035090764213528 38.26289961394708 0 0 0
67 2 1 0 12.861794112259952 -4.937917174332534 38.88150588124796 0 0 0
2332 47 1 0 29.887716637939178 -5.788285430640066 36.8952452031426 0 0 0
2331 47 1 0 30.90234505570496 -5.622989343346044 37.43042215251828 0 0 0
2330 47 1 0 31.828468156758497 -5.213703154114463 37.83189840796223 0 0 0
2329 47 1 0 32.81075227316329 -4.857910381286034 38.39746061496903 0 0 0
70 2 1 0 10.079489222240992 -4.48185007614491 37.29329585717222 0 0 0
40 1 1 0 22.809166923769144 -4.395374555907839 38.72587190150475 0 0 0
39 1 1 0 22.175435116162248 -3.484421279534225 38.49840545458992 0 0 0
2650 53 1 0 37.71225680028369 -2.82661592334598 37.774814290164706 0 0 0
2649 53 1 0 38.18634546224328 -2.814736348893425 36.869066649950575 0 0 0
4097 82 1 0 51.54384903274359 -4.288974507960018 36.99979484381196 -1 0 0
4098 82 1 0 51.02478003362945 -3.9506330233197433 38.05037923515372 -1 0 0
4099 82 1 0 50.471038761219205 -3.7605479737691145 38.859238795682515 -1 0 0
4151 84 1 0 2.9061226213733637 -1.6011726483698439 38.37840198854881 0 0 0
2417 49 1 0 14.542153581631021 -0.5241168651876932 38.6659435624099 0 0 0
36 1 1 0 20.861894157249882 -0.6657632744668522 37.28241117608504 0 0 0
37 1 1 0 21.332146300531754 -1.5306603802863323 37.8247119616853 0 0 0
38 1 1 0 21.735436682066858 -2.5141517396879505 38.20336420828523 0 0 0
2356 48 1 0 28.53020937837648 -1.6608391419374302 37.781770411655735 0 0 0
2357 48 1 0 28.453714366086086 -2.237336327882591 38.75487758824439 0 0 0
2419 49 1 0 12.675657516882648 -0.11588917274488657 37.47708963657068 0 0 0
2418 49 1 0 13.535851009436135 -0.4111529680250984 38.15888365158591 0 0 0
2272 46 1 0 45.193871763589584 0.6104791982600309 37.12844690990268 0 0 0
2273 46 1 0 44.8810023137803 0.2148997430618021 38.20522317394068 0 0 0
7 1 1 0 -3.4526499605873533 3.2906503745483136 36.97944176898923 0 0 0
6 1 1 0 -4.344038974888373 3.919140687139953 37.21399135621059 0 0 0
2029 41 1 0 22.72986630381852 3.6391103771953217 37.13177813173799 0 0 0
2030 41 1 0 23.591963417022672 2.9211316453423564 37.30678230449974 0 0 0
2031 41 1 0 24.41220968693962 2.5821005247663105 37.91429449952393 0 0 0
2032 41 1 0 25.342436636973016 2.3732336472135644 38.520117884821836 0 0 0
2655 54 1 0 36.38472718448705 3.2972579334385306 38.071996523442365 0 0 0
2654 54 1 0 35.51756162648681 3.770371180080493 38.3723113242464 0 0 0
2656 54 1 0 37.11784736156145 2.8389144534046897 37.35239852071759 0 0 0
5 1 1 0 -5.373196114352675 4.537375827592434 37.40438355573934 0 0 0
4 1 1 0 -6.387560076663575 5.028466180670505 37.656869462470404 0 0 0
2462 50 1 0 2.6295433878175505 4.442098541387645 38.86756774073032 0 0 0
2461 50 1 0 2.0761018994015115 5.398396165762965 38.4044749114418 0 0 0
4649 93 1 0 10.783988398336716 6.015096259575116 37.238983329479666 0 0 0
4650 93 1 0 11.069974051720097 5.428745307181656 37.99855466004405 0 0 0
2653 54 1 0 34.52037765094912 4.1041072287509035 38.52119640608515 0 0 0
2652 54 1 0 33.7236842397049 4.706625987273025 38.941883568116026 0 0 0
3 1 1 0 51.96263015080963 5.499600460365366 38.37774078369073 -1 0 0
2460 50 1 0 1.549136583399769 6.303142218963635 38.325456087702705 0 0 0
2459 50 1 0 0.8132213846415955 7.256428044322722 38.392917568864135 0 0 0
2458 50 1 0 0.31474638618024275 8.303088929281616 38.5612500104746 0 0 0
2120 43 1 0 31.45353297403656 8.280944291546733 36.79104042760955 0 0 0
2457 50 1 0 -0.35068894521076033 9.162074510812298 38.68014341911283 0 0 0
4668 94 1 0 14.086543903036768 9.289682877140564 38.439022801398174 0 0 0
4667 94 1 0 14.42136635343277 9.30154843826243 37.32091746753586 0 0 0
2118 43 1 0 29.379818180283845 8.607820339693502 37.62015041295517 0 0 0
2117 43 1 0 28.483474496199115 8.94989500810316 38.1100662743625 0 0 0
2119 43 1 0 30.41732842517026 8.49443656519657 37.18803455299507 0 0 0
4762 96 1 0 37.53758072466907 9.375207253253844 37.814395032243446 0 0 0
4761 96 1 0 38.16755979305041 9.099650447746921 38.846755388971616 0 0 0
4763 96 1 0 37.357344952384466 9.949028853639046 36.963199216286846 0 0 0
2262 46 1 0 43.68651977605026 10.052090381152732 37.39007284988124 0 0 0
2622 53 1 0 -6.33933110484309 11.633018900588134 37.57622116778627 1 0 0
2621 53 1 0 -6.962457556087323 11.86135572350373 38.5859163059176 1 0 0
2021 41 1 0 19.431649668889428 11.837872927323756 36.77997972663225 0 0 0
2261 46 1 0 43.008189692847125 10.969680648586696 37.66810426943973 0 0 0
2260 46 1 0 42.434836047259004 11.58155859128215 38.3937743558195 0 0 0
2259 46 1 0 41.590471262017815 12.19024549111577 38.86826809901267 0 0 0
4674 94 1 0 11.390336613506582 14.560162515941032 38.86848375953642 0 0 0
3077 62 1 0 47.40240153148073 13.867623526459944 38.2407030651113 0 0 0
3076 62 1 0 48.053545540995806 13.799627679060562 37.37243106771051 0 0 0
2444 49 1 0 -5.360648377837106 16.992576815304165 38.01810863296151 0 0 0
2442 49 1 0 -3.4127792144857496 16.182418494432767 37.162419800747244 0 0 0
2443 49 1 0 -4.28525161312907 16.77047324728764 37.627331595397465 0 0 0
4213 85 1 0 3.447902141641758 16.169881091936276 37.37678396832495 0 0 0
4214 85 1 0 3.6135149356622267 15.944575626761493 38.39451073526653 0 0 0
4675 94 1 0 11.381301609538552 15.584887768153163 38.288293266514515 0 0 0
4676 94 1 0 11.606775748087877 16.336587189488064 37.380413058130806 0 0 0
2234 45 1 0 40.05806238763765 16.92358473054682 37.263068589622705 0 0 0
2445 49 1 0 -6.380199852080887 17.293589625018964 38.54872873832965 0 0 0
4634 93 1 0 7.954256226997052 17.847828907263168 37.32325139720246 0 0 0
4633 93 1 0 8.357310254405162 18.262037143381153 38.27408362751245 0 0 0
2197 44 1 0 23.656324771162904 17.382558919666472 37.27358404343272 0 0 0
2198 44 1 0 23.71813091571094 18.270968064184025 37.96623609835354 0 0 0
2199 44 1 0 23.64259610937005 19.20973586037592 38.50460777123064 0 0 0
2228 45 1 0 33.93993731789941 18.273912084787536 37.73056968272757 0 0 0
2227 45 1 0 33.00012971015996 18.64570306311205 37.15047020198947 0 0 0
2229 45 1 0 35.00191041784367 18.16338461707067 38.25062202848548 0 0 0
2230 45 1 0 36.08778867799337 17.983712999847086 38.69577399838013 0 0 0
2232 45 1 0 38.21855932343787 17.539780003812375 38.45674450819459 0 0 0
2231 45 1 0 37.19377160537744 17.75349208298561 38.77014259972191 0 0 0
2233 45 1 0 39.124300788318386 17.306465171623678 37.8934796547098 0 0 0
2446 49 1 0 51.70705078321717 17.84188196670593 38.901175492007546 -1 0 0
2447 49 1 0 50.89977570630039 18.606101540543037 38.806233663223324 -1 0 0
2013 41 1 0 16.136523624041814 19.865171622664345 37.01550653716336 0 0 0
2012 41 1 0 15.844192386721948 20.58228856028028 37.817724790212345 0 0 0
2011 41 1 0 15.199847380154036 21.339400797530583 38.33036843539057 0 0 0
2714 55 1 0 44.627713372233146 19.955118517863365 37.421502027583486 0 0 0
2715 55 1 0 44.09393605814643 20.54011850793008 38.160912379872364 0 0 0
2716 55 1 0 43.44076068364011 21.22774259000141 38.85866063765286 0 0 0
4183 84 1 0 -6.175240996197119 22.076565978328347 37.19249033562902 0 0 0
4182 84 1 0 -6.220584247840395 22.751833805309424 38.18142869681873 0 0 0
2010 41 1 0 14.529288002939158 22.10792396257319 38.9049316376285 0 0 0
2525 51 1 0 20.221445781639932 22.719985970761034 38.60185292913342 0 0 0
485 10 1 0 6.623099804114223 24.025745659931758 37.10895861336604 0 0 0
486 10 1 0 7.100866823365687 24.775455963325985 37.679826652701664 0 0 0
487 10 1 0 7.907293385829167 25.439069237527914 38.311388070663874 0 0 0
2526 51 1 0 20.559821677011968 23.718023002943635 38.058839359275375 0 0 0
2527 51 1 0 21.06871206897025 24.66435110614524 38.19711336330106 0 0 0
2528 51 1 0 21.702268019124197 25.500663231504088 38.712083398618574 0 0 0
4585 92 1 0 47.2817286597106 24.342380406037677 37.05068675946651 -1 0 0
4586 92 1 0 47.340226908092866 24.767553076518496 38.145905237049355 -1 0 0
4311 87 1 0 1.8219112745491277 27.653852117059706 37.474149659597295 0 0 0
4310 87 1 0 2.3353915799552167 27.923348911412184 38.45673699351496 0 0 0
488 10 1 0 8.955463059812873 25.9160796138545 38.52714235598487 0 0 0
489 10 1 0 9.930856080452687 26.439402056126344 38.80578243547475 0 0 0
490 10 1 0 10.970314637919687 26.94689233606988 38.82256907100578 0 0 0
2096 42 1 0 26.17929560992459 26.223544139310324 37.23207699184117 0 0 0
2095 42 1 0 26.719766939023184 26.022159646742868 38.216341373238045 0 0 0
494 10 1 0 14.54721859146162 29.610221594980604 38.707292011587676 0 0 0
1538 31 1 0 31.52616240420753 29.663422396731335 38.36543714607921 0 0 0
1539 31 1 0 32.14422995942903 29.037021813179972 37.744174998670125 0 0 0
1541 31 1 0 34.02457804044316 28.17357409601416 36.80356880662399 0 0 0
1540 31 1 0 33.073458214747724 28.519737025182888 37.19144195721919 0 0 0
3095 62 1 0 44.67255917294302 29.61153551359366 38.25996413370972 0 0 0
1884 38 1 0 -0.002430610610809641 32.11434557502973 38.8428647719739 0 0 0
4824 97 1 0 8.05356460449289 30.908863252678522 37.96180919743398 0 0 0
4823 97 1 0 8.442669680793642 30.439445016540606 37.01266761823928 0 0 0
4825 97 1 0 8.468972252607385 31.685997678296964 38.778250318551606 0 0 0
495 10 1 0 15.107980651087855 30.411220309169913 38.34561094933659 0 0 0
497 10 1 0 16.47210638237554 32.13512063625055 37.40402087316101 0 0 0
496 10 1 0 15.722995921843687 31.383724253552025 37.96714641659492 0 0 0
4842 97 1 0 24.891846630303167 30.952705784587945 38.31322889071776 0 0 0
4841 97 1 0 23.95753495035835 31.46365523065475 38.887144832465566 0 0 0
4843 97 1 0 25.692120667260433 30.565059683825076 37.522937064855206 0 0 0
3096 62 1 0 45.08877149475949 30.411765564818158 37.67247166180203 0 0 0
3097 62 1 0 45.628000091435176 31.054690737581286 36.91328310611634 0 0 0
1883 38 1 0 0.17548922363210295 32.568455302412126 37.90668793696272 0 0 0
1882 38 1 0 0.03342253881159036 32.98937820208466 36.86135284115361 0 0 0
498 10 1 0 17.39184391843565 32.47397179539177 36.88184051248878 0 0 0
2750 55 1 0 34.92775766829618 33.12004604992267 37.0055071714751 0 0 0
2749 55 1 0 35.34464027237471 34.08987258104529 37.050912047372506 0 0 0
2748 55 1 0 35.841409350054235 34.9474777008367 37.49230212079895 0 0 0
2747 55 1 0 36.318234568351706 35.95679675398571 37.92361866592972 0 0 0
1553 32 1 0 40.97508308384321 35.134711716175524 37.911145634671854 0 0 0
1552 32 1 0 40.78915415682893 34.86492200021047 38.94239647528329 0 0 0
1554 32 1 0 41.211815554241035 35.20250200397412 36.805840627704015 0 0 0
3118 63 1 0 46.46419609331184 36.49364946296876 38.82918998913605 0 0 0
1927 39 1 0 2.7726788402780285 38.619095622225956 37.67372292059098 0 0 0
1926 39 1 0 2.350338391494313 37.838217567260855 38.33913763515667 0 0 0
1668 34 1 0 8.20267725030765 37.207729388639514 37.27161009337376 0 0 0
1667 34 1 0 9.243310579547304 37.423089923400276 37.62156666153414 0 0 0
1666 34 1 0 10.212260211195352 37.74619275211197 38.01227358807214 0 0 0
1665 34 1 0 11.202957515930693 38.306620557046465 38.201357509683476 0 0 0
1664 34 1 0 12.133737747552491 38.758000348710645 38.45457209728559 0 0 0
1638 33 1 0 18.220805257768077 37.206543574594384 37.00418416484923 0 0 0
1637 33 1 0 19.147922400156858 37.33482266944032 37.60783215285494 0 0 0
1636 33 1 0 20.061424254274417 37.557872134003304 38.14675690591691 0 0 0
1635 33 1 0 21.09365009372293 37.95666907625405 38.43778350736055 0 0 0
1634 33 1 0 22.019203576536476 38.34097986657644 38.82544778535498 0 0 0
1633 33 1 0 23.148445366365813 38.794006608636586 38.84485174410172 0 0 0
1600 32 1 0 29.74742603024671 37.081988635466686 36.98564830413463 0 0 0
2746 55 1 0 36.735408279264554 36.96138337040552 38.33431067296987 0 0 0
2745 55 1 0 36.896687639389015 38.002759082959734 38.71521998621922 0 0 0
3120 63 1 0 44.605019071059345 37.553822855700496 38.14589227223596 0 0 0
3121 63 1 0 43.96945782260689 38.4454087400606 37.660949038067805 0 0 0
3119 63 1 0 45.461232382624225 37.01179381762573 38.56800704739913 0 0 0
1850 37 1 0 -5.042946795555096 40.091017202267146 36.85304561612444 0 0 0
1849 37 1 0 -4.658452348997836 40.82108715391571 37.474276734913055 0 0 0
1928 39 1 0 3.033958595632864 39.62519051993539 37.411683199483704 0 0 0
1929 39 1 0 3.5278948928157545 40.64776864635516 37.405663791819556 0 0 0
1662 34 1 0 14.085964947095423 39.68830386419808 38.237292532501385 0 0 0
1663 34 1 0 13.06183425496728 39.31689377332909 38.408772589009274 0 0 0
1661 34 1 0 14.835892210931837 40.440554903189685 38.54602727561037 0 0 0
1628 33 1 0 28.435637301413927 40.471292870784694 38.79606439443946 0 0 0
1627 33 1 0 29.33663139375597 41.15262192863788 38.541711544526606 0 0 0
3122 63 1 0 43.02099578746399 38.99150689427555 37.15480800052867 0 0 0
3123 63 1 0 42.095625437692085 39.2944166608026 36.777266513008136 0 0 0
1848 37 1 0 -4.456042980651277 41.665730233973335 38.18291527227098 0 0 0
1847 37 1 0 -4.185005064718899 42.49745975127022 38.88224345092424 0 0 0
1930 39 1 0 4.085077484551945 41.583253890176145 37.61155504805484 0 0 0
1931 39 1 0 4.928075068768986 42.34604774203544 38.081787699722334 0 0 0
1932 39 1 0 5.568456480739299 43.25069881802165 38.5129572194697 0 0 0
1626 33 1 0 30.14758738133177 41.60261731144069 37.93983841921091 0 0 0
1625 33 1 0 30.888834328170546 41.8262749463766 37.13161322394574 0 0 0
1870 38 1 0 -0.48739367132660943 43.63670795210606 37.4641134482969 0 0 0
1869 38 1 0 0.0904737382026155 43.973636013960885 38.40370739124929 0 0 0
1813 37 1 0 12.405446908215142 46.14332167332115 36.99589010459728 0 0 0
1814 37 1 0 12.846184037145804 46.56518270436588 37.96628881964482 0 0 0
1815 37 1 0 12.937100636688726 47.16316361862107 38.924515155499336 0 0 0
4856 98 1 0 21.01210839110337 47.41502932086079 36.79570235086691 0 0 0
2872 58 1 0 27.631515234257066 47.16729131972493 38.768280659190644 0 0 0
2874 58 1 0 29.376015792173465 47.18647949639899 37.23646914573154 0 0 0
2873 58 1 0 28.40702200506307 47.161453914196976 37.86178474032312 0 0 0
4853 98 1 0 18.144933584728875 48.68076661872617 38.17965231486233 0 0 0
4854 98 1 0 19.092343942963712 48.31866724650338 37.661651411180294 0 0 0
4855 98 1 0 20.094713540035396 47.848654303878554 37.18873151496878 0 0 0
1473 30 1 0 49.58886940745406 49.59449550441682 38.704622135632285 0 0 0
1472 30 1 0 49.766985949595565 49.969167228609486 37.66533197470767 0 0 0
4141 83 1 0 -4.0320152870299735 -5.730394927726137 39.458976318084 0 0 0
4142 83 1 0 -4.285171010365906 -5.545772036717038 40.55262192894915 0 0 0
66 2 1 0 13.902862477206012 -4.969497398021406 39.33339156673619 0 0 0
65 2 1 0 14.98496500483437 -5.108561427154043 39.91499005786769 0 0 0
64 2 1 0 15.901191328078415 -4.955525672466787 40.43398651698176 0 0 0
41 1 1 0 23.17540448923573 -5.4691484808504125 39.012830633846 0 0 0
42 1 1 0 23.677136521861716 -6.216517820319556 39.71592628409542 0 0 0
43 1 1 0 24.16757543124745 -6.95199747644058 40.42442944664564 0 0 0
63 2 1 0 16.699425296332006 -4.408701051645873 40.893486820140716 0 0 0
2359 48 1 0 28.45334792609347 -3.5527019591565168 40.43474937966768 0 0 0
2358 48 1 0 28.37137861075662 -2.8680638620511125 39.562214246063576 0 0 0
2328 47 1 0 33.70129593048704 -4.583066458967353 39.1063080062663 0 0 0
2327 47 1 0 34.38760920338078 -4.047836113177683 39.81417280029183 0 0 0
2326 47 1 0 35.02625804414334 -3.696354789127193 40.53690875296271 0 0 0
1050 21 1 0 41.55037997871926 -3.8282995183943327 40.55984459196905 0 0 -1
4100 82 1 0 50.29781405319781 -3.3553425811274846 39.750721803050666 -1 0 0
4153 84 1 0 1.2556727289363963 -1.0145859390963818 39.71770082926535 0 0 0
4152 84 1 0 2.1886070419846457 -1.4632081150408087 39.11434967657397 0 0 0
2416 49 1 0 15.362504814916141 -0.7016713139055026 39.332007853548554 0 0 0
2415 49 1 0 15.949138552737594 -0.6330926644472631 40.250752020238295 0 0 0
4154 84 1 0 0.616040952299866 -0.2869091736068943 40.36869206928513 0 0 0
4155 84 1 0 0.1823891103573112 0.5870003976174148 41.10150646121462 0 0 0
2466 50 1 0 5.990545311179762 1.7395170642533329 39.596321116250635 0 0 0
2468 50 1 0 8.245070084684388 1.636557302449397 39.66568823962995 0 0 0
2467 50 1 0 7.068654488407766 1.602352440280333 39.63343987196482 0 0 0
2469 50 1 0 9.308692557500118 1.5876935202947462 39.733139159518586 0 0 0
2470 50 1 0 10.484516583646379 1.6461585832565464 39.93966847572457 0 0 0
2276 46 1 0 43.22270285319594 0.6084518762648995 41.069169582381924 0 0 0
2275 46 1 0 43.68829098599723 0.38205999351943903 40.07925902735332 0 0 0
2274 46 1 0 44.46991336392276 0.11971690942693824 39.24468062865972 0 0 0
2463 50 1 0 3.2248429415947175 3.6392525133892706 39.10602463561294 0 0 0
2464 50 1 0 3.8689991869171854 2.714000108790454 39.26238954798553 0 0 0
2465 50 1 0 4.843492487985092 2.2250721669934896 39.45477398968109 0 0 0
2471 50 1 0 11.378574262268133 2.075668312137363 40.4258400464313 0 0 0
2472 50 1 0 12.148502313186457 2.7560798978774 40.992240733303326 0 0 0
2033 41 1 0 26.070617580876362 2.285040887585785 39.36334520995708 0 0 0
2034 41 1 0 26.773399264657193 2.1959939625262956 40.26985488964402 0 0 0
2035 41 1 0 27.569355720205905 2.189619466172504 41.01895508741371 0 0 0
2651 54 1 0 32.996273249108235 5.200030221505608 39.489608839271455 0 0 0
2 1 1 0 51.35602395416909 6.092846300805144 39.05939309758481 -1 0 0
1 1 1 0 50.87240105341135 6.493939340550014 39.85007346900034 -1 0 0
2456 50 1 0 -0.7045594452527266 10.071224548929 38.94534522713317 0 0 0
4669 94 1 0 13.387339562682623 9.64109618622514 39.26889044563268 0 0 0
2116 43 1 0 27.755678191273464 9.15343970066416 38.95115422313659 0 0 0
2115 43 1 0 26.83354523830878 9.503451461181013 39.66062032630358 0 0 0
2114 43 1 0 25.969300708156034 9.837822201597048 40.27194681359262 0 0 0
4760 96 1 0 38.370390394526886 8.706517289547119 39.91873239797746 0 0 0
4759 96 1 0 38.65392187624979 8.543938515231845 41.056083732957134 0 0 0
2454 50 1 0 -0.9075014284648856 12.078373393068082 40.10299465457059 0 0 0
2455 50 1 0 -0.9959777739281364 11.014502697983406 39.4655360286922 0 0 0
4671 94 1 0 12.146794504884175 11.492745563843126 39.74901714575446 0 0 0
4672 94 1 0 11.66023209063319 12.451738925310838 39.67361426244666 0 0 0
4670 94 1 0 12.742384752890413 10.509024225101976 39.769092430150266 0 0 0
2258 46 1 0 40.77557008928497 12.50537052103768 39.55436673687864 0 0 0
2618 53 1 0 49.8849766621939 11.18635420309843 40.68732211334787 0 0 0
2620 53 1 0 51.397352572214004 11.932073585659824 39.37102948104961 0 0 0
2619 53 1 0 50.64571942120077 11.644335453472213 40.06533912777761 0 0 0
2452 50 1 0 -1.4502588241242247 14.190101486010944 40.964987335390596 0 0 0
2453 50 1 0 -1.1033868649744412 13.165413719623583 40.55347964506766 0 0 0
4673 94 1 0 11.409184834761874 13.514672050086691 39.45237284468463 0 0 0
2257 46 1 0 40.18611980501416 12.908026175703915 40.42708127355438 0 0 0
3078 62 1 0 46.919168626975086 14.421114553384935 39.03318772921719 0 0 0
4215 85 1 0 4.180895240847093 15.860461479433543 39.42932996945383 0 0 0
4216 85 1 0 4.506977410826907 15.636447429980164 40.484618019186414 0 0 0
3079 62 1 0 46.612028142882146 15.201421026729399 39.826826627109625 0 0 0
3080 62 1 0 46.566218906480614 16.05189519176165 40.643531554954166 0 0 0
4632 93 1 0 8.815753253850895 18.395758820153716 39.38037107436762 0 0 0
4631 93 1 0 9.034268318557851 18.790278849942617 40.533284070681475 0 0 0
2523 51 1 0 20.126557978941808 21.1432723802776 40.15462563485428 0 0 0
2522 51 1 0 20.37528623989058 20.42269351725557 41.005267675134576 0 0 0
2200 44 1 0 23.68747007410307 19.874152311037513 39.30955808049825 0 0 0
2572 52 1 0 32.1513840244267 20.18359962177252 40.87495545695177 0 0 0
2571 52 1 0 32.45493235032643 21.174077767335593 40.451447472654 0 0 0
2449 49 1 0 49.5008672849214 20.294902781081262 39.29385025014284 -1 0 0
2450 49 1 0 48.86730433874864 21.023236407970018 39.81459539363859 -1 0 0
2448 49 1 0 50.206107859102275 19.483331396370243 39.14023959973664 -1 0 0
4181 84 1 0 -6.004893112969355 23.178962348279114 39.12692781958292 0 0 0
4180 84 1 0 -6.270464818624004 23.01630774283084 40.23321835913916 0 0 0
2007 41 1 0 12.197703716211276 23.559648641691695 40.904202712779274 0 0 0
2009 41 1 0 13.845358351864247 22.7547159978129 39.53797784740224 0 0 0
2008 41 1 0 12.996412634479956 23.2240221491323 40.17730151546512 0 0 0
2524 51 1 0 19.99945209383592 21.802668831864256 39.21824497927517 0 0 0
2570 52 1 0 32.928408223995966 22.21009921623766 40.53436843311709 0 0 0
2569 52 1 0 32.89877145933342 23.433452360626426 40.59550833124377 0 0 0
2719 55 1 0 41.813231174964336 23.367126912099156 40.738024337416455 0 0 0
2717 55 1 0 42.83381788666081 22.045994625825074 39.38091814460473 0 0 0
2718 55 1 0 42.31471011363515 22.74710445076845 39.9286759619681 0 0 0
2094 42 1 0 27.154227031265677 25.678264424064547 39.239797123425404 0 0 0
2093 42 1 0 27.546533640967372 25.525934643340793 40.2708207096724 0 0 0
2568 52 1 0 33.06632144288306 24.43742422350334 40.93459562833261 0 0 0
4587 92 1 0 47.79935821363866 25.33418074632102 39.034617023493105 -1 0 0
4300 86 1 0 -1.5641422187561445 25.931774317344395 40.84475079649504 0 0 0
491 10 1 0 11.84914816681691 27.643436843924164 39.012301968503714 0 0 0
2529 51 1 0 22.297112583172115 26.34338707499913 39.04718102578447 0 0 0
2530 51 1 0 22.925171423599508 26.98512181359218 39.73435898602606 0 0 0
2531 51 1 0 23.34030063468244 27.508552057054903 40.536994466700776 0 0 0
3092 62 1 0 44.52080992223147 27.93441457409616 41.05869474506693 0 0 0
4588 92 1 0 47.977509690817946 26.277377102193835 39.65048112335113 -1 0 0
4589 92 1 0 48.51443983613521 27.29621013654073 40.04394470072465 -1 0 0
4309 87 1 0 2.7566995018809672 28.590340795089894 39.3118594335471 0 0 0
4308 87 1 0 3.1915047210954377 29.481242817573442 39.84841625072301 0 0 0
492 10 1 0 12.758066763110683 28.3531599378428 39.03425102457093 0 0 0
493 10 1 0 13.723544415274658 28.946858428978505 39.01363756900916 0 0 0
3094 62 1 0 44.49346061229521 28.997026217470367 39.19308719910982 0 0 0
3093 62 1 0 44.484983833411576 28.39331546081047 40.09869352629758 0 0 0
4590 92 1 0 48.97917096505758 28.189039294223267 40.51987392808966 -1 0 0
4591 92 1 0 49.789851117041096 28.9490289185785 40.58349797624917 -1 0 0
4592 92 1 0 50.58898958278446 29.689423104162465 40.60867514785176 -1 0 0
1887 38 1 0 -1.7439933677139627 30.511284185787346 41.05620459386448 0 0 0
1886 38 1 0 -0.9682292111531082 31.03683632809993 40.54485348953972 0 0 0
1885 38 1 0 -0.3158702819529472 31.67879847967601 39.75110564384493 0 0 0
4307 87 1 0 3.5878513901215 30.278930886377992 40.599326259191486 0 0 0
4306 87 1 0 4.131609799489111 31.13202053231557 40.94990380590366 0 0 0
4840 97 1 0 23.040616363956126 31.890289451685863 39.298332908057226 0 0 0
1535 31 1 0 29.6635064278139 31.445156680846985 40.363295361784644 0 0 0
1537 31 1 0 31.013087582252822 30.280295167381713 39.06926471151495 0 0 0
1536 31 1 0 30.525862314845998 30.971873063341523 39.76168909111881 0 0 0
4594 92 1 0 51.83103099066834 31.50998164090078 40.88942352369284 -1 0 0
4593 92 1 0 51.350263515592864 30.522207857403124 40.63130144535041 -1 0 0
4595 92 1 0 -6.95043588810496 32.661681700165666 41.105379877934254 0 0 0
4826 97 1 0 9.016396242305222 32.4625854988853 39.40072890209121 0 0 0
4827 97 1 0 9.775104194867744 33.13302023762214 39.89940478343633 0 0 0
4828 97 1 0 10.756443954537549 33.721401098980714 40.21125857791506 0 0 0
4829 97 1 0 11.719159020628995 34.2727752578008 40.290418695653806 0 0 0
4836 97 1 0 19.203834208023178 34.22691880234097 40.39148799801885 0 0 0
4837 97 1 0 20.24584176572923 33.68147734439227 40.16465033882534 0 0 0
4838 97 1 0 21.111007915708733 33.21299775869004 39.862977935841705 0 0 0
4839 97 1 0 22.06517114796574 32.443605194261515 39.67338150489604 0 0 0
1924 39 1 0 1.4877877894345648 36.242352077511434 39.576085576287284 0 0 0
1923 39 1 0 1.061183218532094 35.592104673810205 40.40744997532604 0 0 0
4830 97 1 0 12.707117672503475 34.75116673206338 40.42622819054771 0 0 0
4831 97 1 0 13.775178002553776 34.863340643122726 40.42956737812421 0 0 0
4834 97 1 0 17.011415915280818 34.9889677832801 40.376499844475205 0 0 0
4833 97 1 0 15.898306640219136 35.013891358798226 40.496692447231844 0 0 0
4832 97 1 0 14.900364528421415 34.75989576479794 40.5262083371123 0 0 0
4835 97 1 0 18.16788097776445 34.6822217301614 40.31902199406106 0 0 0
2850 57 1 0 32.53121201672788 36.69724369453994 40.926220523971736 0 0 0
1551 32 1 0 40.76166216902472 34.8730638047762 39.98571544218905 0 0 0
3117 63 1 0 47.32903136339217 36.285303132584 39.59367628944638 0 0 0
3116 63 1 0 48.03540775621285 35.756782352435 40.32511681242292 0 0 0
1925 39 1 0 1.922846631697208 36.93779819541932 38.9492758763174 0 0 0
2744 55 1 0 37.01857189034267 38.954215640805 39.3044824681836 0 0 0
1632 33 1 0 24.270933237280286 39.00538095299991 39.01160922849134 0 0 0
1631 33 1 0 25.41864391414627 39.11222085434524 39.039527070599696 0 0 0
1630 33 1 0 26.50764220487978 39.543734611958655 39.134829094914124 0 0 0
1629 33 1 0 27.45396421543383 39.95616493108977 39.003207537659534 0 0 0
2742 55 1 0 36.75818442496037 40.30368630081762 41.041434867329166 0 0 0
2743 55 1 0 36.98659420101651 39.851449328499854 40.003551133297755 0 0 0
1660 34 1 0 15.523126169087275 41.19986513606717 39.027423246053004 0 0 0
1659 34 1 0 15.965050357286987 41.88047096976342 39.86764774310218 0 0 0
1658 34 1 0 16.40254333466573 42.71956669632418 40.44615377166557 0 0 0
2820 57 1 0 43.67285888990264 41.25901143722215 40.90228878402286 0 0 0
2822 57 1 0 44.38002357131654 43.31662324334874 40.23501965496797 0 0 0
2821 57 1 0 44.046465351806674 42.35103712193534 40.576673456091754 0 0 0
1846 37 1 0 -4.258071028413683 43.44140309130178 39.56163064677347 0 0 0
1845 37 1 0 -4.235618815937016 44.32188701195927 40.30331755252382 0 0 0
1844 37 1 0 -4.261389396302923 45.24867273029088 41.1027508641312 0 0 0
1868 38 1 0 0.5411232044126214 44.22376691083193 39.42954138800468 0 0 0
1867 38 1 0 0.6864069664536017 44.49297786563399 40.47471388097781 0 0 0
1933 39 1 0 6.3116852499844285 43.719121543669566 39.320315181104455 0 0 0
1934 39 1 0 7.056478713177257 44.08074094146701 40.08128815249722 0 0 0
1935 39 1 0 7.659992180403545 44.627019385507715 40.94010361881943 0 0 0
2823 57 1 0 44.55408079717775 44.48362999122544 39.94117531024067 0 0 0
2871 58 1 0 26.698007692321365 47.19878644438333 39.482804487021596 0 0 0
2870 58 1 0 25.97811295458528 46.84235314794501 40.33886719707464 0 0 0
2824 57 1 0 44.587860333855225 45.68290940822309 39.87136928471834 0 0 0
2825 57 1 0 44.422144891613314 46.76216290808282 39.75345767418087 0 0 0
1817 37 1 0 12.39681495690519 48.39393026032846 40.68971271436798 0 0 0
1816 37 1 0 12.853019488041065 47.77980975727905 39.846862170596445 0 0 0
4851 98 1 0 16.831302958096714 49.40541186668094 39.7055429542096 0 0 0
4852 98 1 0 17.504252338207845 49.16503518739823 38.95401676422845 0 0 0
2828 57 1 0 42.68760110624573 49.57620054909195 40.0095473888183 0 0 0
2826 57 1 0 44.05281994188359 47.7730619999743 39.63960005359322 0 0 0
2827 57 1 0 43.48005965892252 48.73665470622767 39.74820518203919 0 0 0
1475 30 1 0 49.26635966030438 48.45857792806124 40.60242907488063 0 0 0
1474 30 1 0 49.4273667882025 48.9764412903217 39.653818868942516 0 0 0
2832 57 1 0 38.804561325860924 51.21894157648344 40.56927793422991 0 0 0
2833 57 1 0 37.82943888683566 51.47267929231922 41.092209080204306 0 0 0
2831 57 1 0 39.84529069465767 50.88575252383123 40.20628320963574 0 0 0
2830 57 1 0 40.865740355937476 50.65490799293272 40.105743431543274 0 0 0
2829 57 1 0 41.8379137890385 50.25920736042352 39.99568020880482 0 0 0
4143 83 1 0 -4.857106433556493 -5.484060072441886 41.57675743531559 0 0 0
4144 83 1 0 -5.517799862238348 -5.64320450426725 42.397683334258005 0 0 0
4145 83 1 0 -6.218648206001965 -6.046562816756216 43.145306621898996 0 0 0
2361 48 1 0 28.456218790908526 -4.911998115120397 42.143098990955295 0 0 0
2362 48 1 0 28.552034122664455 -5.370206739397526 43.23104465759209 0 0 0
62 2 1 0 17.698595447089588 -3.915682331178594 41.3454154877439 0 0 0
61 2 1 0 18.556688267677227 -3.5352160123319023 41.865525238829626 0 0 0
60 2 1 0 19.221981368940426 -3.570969332009031 42.88041384152095 0 0 0
2360 48 1 0 28.282143439114712 -4.181267583638323 41.28286190979682 0 0 0
2325 47 1 0 35.56423851491053 -3.0462963658310156 41.29776460066968 0 0 0
1049 21 1 0 41.29574837015224 -3.593630227329624 41.52021992808826 0 0 -1
1048 21 1 0 41.313541736155976 -3.506623673403882 42.614943818286136 0 0 -1
2414 49 1 0 16.408876701574652 -0.5819308486548369 41.28571639404904 0 0 0
2324 47 1 0 35.87730937632692 -2.1055954458818342 41.805271385399955 0 0 0
2323 47 1 0 36.26038830400296 -1.1787622257672925 42.27701399470087 0 0 0
4156 84 1 0 -0.4258798454119209 1.2256161036518027 41.81596799415874 0 0 0
2413 49 1 0 16.875653164646792 -0.20375623454138375 42.28588909318845 0 0 0
2412 49 1 0 17.53775327288377 0.2585616919273087 43.20861445530239 0 0 0
2322 47 1 0 36.56193879323197 -0.12819317617104237 42.588206712724435 0 0 0
2321 47 1 0 36.80714049975748 0.9392370526145697 42.85076737568063 0 0 0
2277 46 1 0 42.674429861802786 1.029461037996435 41.99558570853538 0 0 0
2278 46 1 0 42.13480789708371 1.650490272349725 42.84544503183649 0 0 0
2600 52 1 0 46.89950757015107 0.9638091455566742 42.69299683543473 0 0 0
2599 52 1 0 46.50439463581897 1.6872768460563816 43.18932582840505 0 0 0
4157 84 1 0 -0.9892126193138625 2.0157608169992876 42.36359989700609 0 0 0
4158 84 1 0 -1.5663163170819718 2.8792476661333395 42.650090164562116 0 0 0
4159 84 1 0 -2.139191125041615 3.7691320165939035 43.10912640502684 0 0 0
2473 50 1 0 12.788941027900842 3.446089313246571 41.59225810224288 0 0 0
2036 41 1 0 28.482424865145884 2.157780140815053 41.57277910972696 0 0 0
2037 41 1 0 29.383526220130264 2.4204636830774744 42.31052549457625 0 0 0
2038 41 1 0 30.241111439340102 2.846864186795786 43.00779672703324 0 0 0
2319 47 1 0 36.67801652575448 3.0675526425773008 42.644709788342354 0 0 0
2320 47 1 0 36.98695184090026 1.9952414953592759 42.77778700562689 0 0 0
2474 50 1 0 13.616547877958926 4.243634504452773 41.95008789411285 0 0 0
2475 50 1 0 14.212837162342874 5.103312002555149 42.26927657837123 0 0 0
2476 50 1 0 14.945735463013028 5.849664628273952 42.72146149219751 0 0 0
2317 47 1 0 36.1943920560109 5.158823550044578 42.61216536638567 0 0 0
2318 47 1 0 36.63303593928531 4.157949749807115 42.484014401060136 0 0 0
2314 47 1 0 34.48441804227433 8.025790953512518 43.18046539579765 0 0 0
2315 47 1 0 35.24992550576511 7.167332542120883 42.86177666996853 0 0 0
2316 47 1 0 35.82179670697637 6.204504768390938 42.74607837385762 0 0 0
2113 43 1 0 25.326307911774993 10.25678593749605 41.14654229555101 0 0 0
2112 43 1 0 24.60208749312513 10.459757777129573 42.09407094001187 0 0 0
4758 96 1 0 38.97092090353859 8.800005303624399 42.2033487971712 0 0 0
4757 96 1 0 39.408192033068524 9.277593030904853 43.1975408554085 0 0 0
2110 43 1 0 22.774935441014282 11.349336407609158 42.94110226109979 0 0 0
2111 43 1 0 23.732546266225214 10.934255305509632 42.635762704847366 0 0 0
2615 53 1 0 47.12820448010416 11.182177098215723 42.670245189148226 0 0 0
2614 53 1 0 46.293373120424306 11.735758689986891 43.217053269405135 0 0 0
2617 53 1 0 48.95981772551361 10.878185033642502 41.43401557967507 0 0 0
2616 53 1 0 48.00404790190279 10.981544078246898 42.02496637735075 0 0 0
2256 46 1 0 39.79994483298161 13.231775886185682 41.469515223023826 0 0 0
2255 46 1 0 39.429618834652295 13.640208056889273 42.53536343572923 0 0 0
2451 50 1 0 -1.6126258140544383 15.163023840279784 41.42719595623898 0 0 0
4217 85 1 0 4.842121207879528 15.595083574023102 41.56134666898075 0 0 0
4218 85 1 0 5.037549243749927 15.472335922018596 42.59402817016883 0 0 0
2576 52 1 0 31.59555689693365 16.38597995691108 42.78093251223103 0 0 0
3081 62 1 0 46.12913441410681 16.90809169226481 41.139993430975956 0 0 0
4630 93 1 0 9.349277267302428 19.05968637928272 41.637210240950694 0 0 0
4629 93 1 0 9.561761716010242 19.22286277821801 42.731155072777256 0 0 0
2575 52 1 0 31.56061429967095 17.17290472453585 41.999366820592456 0 0 0
2574 52 1 0 31.636328943355768 18.13015132214614 41.576742650865576 0 0 0
2573 52 1 0 31.779560833248752 19.165566696997786 41.35871587855915 0 0 0
3082 62 1 0 45.71587775126998 17.736400320754523 41.81225011808488 0 0 0
3083 62 1 0 45.53085776936543 18.66034863635095 42.44681792569758 0 0 0
4253 86 1 0 0.23617052152882878 20.399112971558143 43.05989959252726 0 0 0
4254 86 1 0 0.8250854291391275 21.29869847207865 42.74440243684941 0 0 0
2520 51 1 0 21.160115271545 19.42876492117884 42.80980891047081 0 0 0
2521 51 1 0 20.78227865499468 19.853831604245183 41.84169195555802 0 0 0
3085 62 1 0 45.3384188454826 20.76912574628483 43.073221114838745 0 0 0
3084 62 1 0 45.48219524870186 19.72859981256197 42.8512370351118 0 0 0
4179 84 1 0 -6.732215568448253 23.067936670582966 41.22495544051472 0 0 0
4255 86 1 0 1.3972971037405737 22.247881605653678 42.5691635813495 0 0 0
4256 86 1 0 1.8314903087331267 23.3036435224824 42.561530193234226 0 0 0
3086 62 1 0 45.073424848831 21.94506779416277 43.10540540294187 0 0 0
3087 62 1 0 44.9334496442489 23.112240314651288 43.198582073620656 0 0 0
4178 84 1 0 51.968513956898484 22.62541482408586 42.21629443282966 -1 0 0
4177 84 1 0 51.7879571060954 21.9893876065522 43.15888614892309 -1 0 0
4297 86 1 0 -3.2145576580627075 23.867975482600936 42.6648739572357 0 0 0
4299 86 1 0 -2.079557258535089 25.220962504667554 41.40223874110599 0 0 0
4298 86 1 0 -2.5653114037725477 24.49418692131954 42.04714280651928 0 0 0
4258 86 1 0 2.7171210172574187 25.14700474790084 43.18992838638616 0 0 0
4257 86 1 0 2.1806433030482157 24.302991545209597 42.766256184064865 0 0 0
2006 41 1 0 11.530031386146204 23.827321499953754 41.86559862196775 0 0 0
2005 41 1 0 10.699554351783128 23.905400091638644 42.70788116539214 0 0 0
2092 42 1 0 27.811177448801832 25.025763157404636 41.38176031546105 0 0 0
2091 42 1 0 28.376237854293233 24.70647977282494 42.38967888348924 0 0 0
2090 42 1 0 28.919775235152187 24.253661147902886 43.257471409213366 0 0 0
2567 52 1 0 33.40651356668243 25.39212066074165 41.28399643562366 0 0 0
2721 55 1 0 40.45609795554353 24.946343727935183 41.81938510799912 0 0 0
2722 55 1 0 39.73612473363991 25.65481753063756 42.09678682938385 0 0 0
2720 55 1 0 41.33433907981452 24.192200606522206 41.42917298354072 0 0 0
3088 62 1 0 44.69688038226647 24.284558471216112 43.28742488603451 0 0 0
3089 62 1 0 44.449550139754315 25.391619524040323 43.21592516143004 0 0 0
2532 51 1 0 23.9027278592344 27.899975656092366 41.36065884791963 0 0 0
2533 51 1 0 24.51980896893142 27.984385441002516 42.31205778889443 0 0 0
2566 52 1 0 33.53483987967146 26.468407792700656 41.68353209342265 0 0 0
2565 52 1 0 33.51042901084852 27.642496954116922 41.86914868560972 0 0 0
2724 55 1 0 38.52077322565295 27.288701253092125 42.883367214433136 0 0 0
2723 55 1 0 38.97922503076524 26.506946677718027 42.261908105705515 0 0 0
3090 62 1 0 44.23285495080541 26.552000418426026 42.919511055533384 0 0 0
3091 62 1 0 44.46048069948073 27.335137874838168 42.12832388440809 0 0 0
1889 38 1 0 -3.4412974896896733 30.134175772117192 42.5206608550786 0 0 0
4601 93 1 0 8.050268874433513 29.92273148284761 42.639320754437044 0 0 0
4602 93 1 0 8.824521723148374 29.822454319262288 43.2008826361947 0 0 0
1995 40 1 0 16.008419077625884 29.333087852230666 43.143219573593775 0 0 0
2534 51 1 0 25.274631453298 28.307979400472885 43.066515526756724 0 0 0
2564 52 1 0 33.730553773665214 28.703576389234268 42.192261675093 0 0 0
2563 52 1 0 33.49615802744181 29.83739636172457 42.50044972913027 0 0 0
1888 38 1 0 -2.72591408441103 30.223915253627514 41.65747664562001 0 0 0
4305 87 1 0 4.650553925005002 32.148977154036885 41.333768074731196 0 0 0
1994 40 1 0 16.101229982802074 30.46853318392323 43.241607438914116 0 0 0
1532 31 1 0 27.563982820322956 31.859380455749328 42.920268864429204 0 0 0
1534 31 1 0 28.929468302765024 31.571239794082864 41.20927565138566 0 0 0
1533 31 1 0 28.226343728662396 31.67289252230825 42.13325705265289 0 0 0
2562 52 1 0 33.27158683666178 30.851727875113877 43.06280645763805 0 0 0
4596 92 1 0 -6.743015115602391 33.787704599194306 41.32955488438391 0 0 0
4304 87 1 0 5.018433064389165 33.211837184085134 41.634349583110286 0 0 0
4303 87 1 0 5.71180126808244 34.07321016781632 42.03730038143646 0 0 0
4597 92 1 0 -6.170792094914502 34.83586105881196 41.43367884235541 0 0 0
4598 92 1 0 -5.671379298961656 35.90972254571075 41.38566658693568 0 0 0
1922 39 1 0 0.8632998230826779 35.20829359734624 41.4669923880843 0 0 0
1921 39 1 0 0.8338155988219788 35.37520126591013 42.60123686378001 0 0 0
4302 87 1 0 6.382701869124046 34.84907412909601 42.2512176193791 0 0 0
4301 87 1 0 7.015358791897493 35.64139976681473 42.26394434771359 0 0 0
2814 57 1 0 44.360111666913966 35.06973432774712 43.275851770165595 0 0 0
2815 57 1 0 44.30164085100894 36.13716552302944 42.80781233234016 0 0 0
3115 63 1 0 48.45162320975038 35.59511383314176 41.43581599733459 0 0 0
3114 63 1 0 48.65308313345153 35.60580753406247 42.628009249844474 0 0 0
4599 92 1 0 -5.186650216980118 36.91100250491835 41.34932943570143 0 0 0
4600 92 1 0 -4.644967625912583 37.782417285219104 41.44768805063001 0 0 0
2849 57 1 0 32.32617657081996 37.64876875294201 41.3602887939832 0 0 0
2848 57 1 0 32.138873611978475 38.56882669089861 41.666209151518814 0 0 0
2816 57 1 0 44.23305982530708 37.15833869081556 42.46164371928771 0 0 0
2817 57 1 0 43.922044273941516 38.211799317595045 42.02125578431053 0 0 0
2847 57 1 0 31.852109845017978 39.51220065188943 42.16496980983631 0 0 0
2846 57 1 0 31.432927407008975 40.484434384604256 42.56456231641908 0 0 0
2741 55 1 0 36.76952708796078 40.83793544931156 41.980174413011625 0 0 0
2819 57 1 0 43.70208916883458 40.235857690851375 41.17837228509195 0 0 0
2818 57 1 0 43.71009980701116 39.14783255993095 41.648583468973044 0 0 0
1657 34 1 0 16.98655193638161 43.13095441496471 41.47393060962605 0 0 0
1656 34 1 0 17.747339695336844 43.272125318258226 42.31507554065682 0 0 0
2845 57 1 0 31.207975226030126 41.36199152281832 43.20670053102841 0 0 0
2740 55 1 0 36.34916438478797 41.206318656231446 43.02251785290621 0 0 0
1866 38 1 0 0.8604765014548958 44.656555716495376 41.555957363915056 0 0 0
1865 38 1 0 1.3339433896565216 44.49472659629551 42.65290839673185 0 0 0
1936 39 1 0 7.981909055528963 45.220965280803426 41.85697696874332 0 0 0
1655 34 1 0 18.44379199106909 43.51998318513346 43.164265931273775 0 0 0
1843 37 1 0 -4.512381078979827 45.89569727782563 42.08997591913515 0 0 0
1842 37 1 0 -4.574767104090015 46.70675314953365 42.812076404196766 0 0 0
1937 39 1 0 8.168057799594369 45.869084004457164 42.79325540715367 0 0 0
2868 58 1 0 25.34091176336955 46.05004841272329 42.255434989102866 0 0 0
2869 58 1 0 25.476692360503776 46.42842593956258 41.20658575589388 0 0 0
2841 57 1 0 31.823897195793514 45.71954222680789 43.14775792657168 0 0 0
2840 57 1 0 32.51077331218057 46.62013977865211 43.182475590249126 0 0 0
2839 57 1 0 33.051715606572195 47.61510715361362 43.23779846285155 0 0 0
1478 30 1 0 49.68943119597825 45.80408007083322 42.737037142777965 0 0 0
1477 30 1 0 49.48226490996321 46.800154995308276 42.12601769819023 0 0 0
1818 37 1 0 11.914660515946009 48.960280026029 41.51951644231621 0 0 0
1819 37 1 0 11.378434098163114 49.73007160783052 42.13441713897485 0 0 0
46 1 1 0 23.49031100622695 49.88553695211377 42.813743849215356 0 -1 0
2837 57 1 0 34.387443354703805 49.30846222046818 42.675779724549436 0 0 0
2838 57 1 0 33.5582803698507 48.637049126945705 43.02231426868527 0 0 0
1476 30 1 0 49.32539177709486 47.73160412326998 41.44211210319316 0 0 0
1820 37 1 0 10.865981806248534 50.52020524373398 42.83314084896546 0 0 0
44 1 1 0 24.200843677732664 51.42615290986052 41.2191544652107 0 -1 0
45 1 1 0 24.045969252551394 50.521800590181094 42.04130678836905 0 -1 0
2834 57 1 0 36.76509223566069 51.339711854452005 41.54686184116278 0 0 0
2836 57 1 0 35.171139767103234 50.10929582734404 42.267990853265644 0 0 0
2835 57 1 0 35.94254164770417 50.694611583081056 41.92412423775565 0 0 0
4146 83 1 0 -6.755096949450271 -6.681216598838403 43.91152976859405 0 0 0
1824 37 1 0 8.14035444268797 -5.645991922493209 44.627866459111715 0 1 0
1825 37 1 0 7.377291476465887 -4.855256659260961 44.90900228980019 0 1 0
1823 37 1 0 8.875634661347727 -6.343735351079365 44.16785501965285 0 1 0
2364 48 1 0 28.39776061880331 -6.120646293486054 45.27595291514821 0 0 0
2363 48 1 0 28.383298382288654 -5.612360786775694 44.26186875608808 0 0 0
1831 37 1 0 1.1568770706529146 -3.3420030892793027 45.47201211634562 0 1 0
1830 37 1 0 2.318525843322266 -3.2462334612255344 45.44253523871486 0 1 0
1827 37 1 0 5.627147115003074 -3.8043416855695162 45.25503633396132 0 1 0
1828 37 1 0 4.553302196182566 -3.247898728695648 45.4586522840197 0 1 0
1826 37 1 0 6.462048459821373 -4.369045744835828 45.11483318110269 0 1 0
59 2 1 0 20.048267362134442 -3.425461596371136 43.59566223078693 0 0 0
58 2 1 0 20.765415576757835 -3.2567310700438337 44.403161418217806 0 0 0
57 2 1 0 21.515460757622037 -3.0711607150957847 45.20541200444444 0 0 0
1047 21 1 0 41.24673336668723 -3.1323465316829573 43.73463802022064 0 0 -1
1046 21 1 0 41.27862873468654 -2.884667557901089 44.807249835835464 0 0 -1
2411 49 1 0 18.392671506886177 0.682499814014515 43.793418956762665 0 0 0
2410 49 1 0 19.277716401324543 1.0587674610554842 44.2603624388925 0 0 0
2409 49 1 0 19.923289124522324 1.8612848031931155 44.892350567984785 0 0 0
2039 41 1 0 31.134661890338577 2.9697042388441885 43.67111043237979 0 0 0
2040 41 1 0 31.722591213130773 3.108759005901059 44.68821804695409 0 0 0
2279 46 1 0 41.71199670970644 2.3425004721180755 43.74109528952837 0 0 0
2280 46 1 0 41.48875905421175 2.8994855008381752 44.69014760440654 0 0 0
2598 52 1 0 46.144615322726594 2.5344222893079573 43.66887353557592 0 0 0
2597 52 1 0 45.944205701002 3.614597432600168 44.25462490115653 0 0 0
4160 84 1 0 -2.7751120179411286 4.567258112598101 43.56034875996972 0 0 0
4161 84 1 0 -3.493470712420985 5.338932789004444 43.63279359804865 0 0 0
2596 52 1 0 45.67360909828089 4.390185685376726 45.14266080906557 0 0 0
4163 84 1 0 -4.490780966570658 7.643953284568508 43.69792484155251 0 0 0
4162 84 1 0 -3.9379217724561553 6.509285306927983 43.69477019867181 0 0 0
2477 50 1 0 15.399231608313023 6.63792101139312 43.41784654913791 0 0 0
2478 50 1 0 15.5935619882045 7.297905640388333 44.25556747802678 0 0 0
2479 50 1 0 15.750466370748272 7.989543804259 45.065766974593956 0 0 0
4166 84 1 0 -6.406592157106996 10.40081707029202 44.31634482784349 0 0 0
4164 84 1 0 -5.254601099939188 8.43899559777117 43.68519727884743 0 0 0
4165 84 1 0 -5.793330700546531 9.422032246072346 43.99402702624449 0 0 0
2311 47 1 0 31.63920645695319 9.84012113648231 44.25290817492298 0 0 0
2310 47 1 0 30.51240120738505 10.191044239364542 44.57170436598462 0 0 0
2313 47 1 0 33.51446003572458 8.565933940998942 43.49665264198256 0 0 0
2312 47 1 0 32.632393955901904 9.200373315966484 43.94916694856884 0 0 0
4756 96 1 0 39.868613021116076 9.68509951821485 43.996072056756454 0 0 0
4755 96 1 0 40.356050438269186 10.324167903638953 44.75913553091653 0 0 0
4168 84 1 0 -6.586396205573892 12.414029031954922 44.88010867966512 0 0 0
4167 84 1 0 -6.6689880183420085 11.432135417918069 44.556343233023966 0 0 0
2108 43 1 0 21.214434953304114 12.151784206464246 44.157273182555784 0 0 0
2109 43 1 0 21.95115961771478 11.838263727853878 43.472046989766454 0 0 0
2309 47 1 0 29.66148882111761 10.823123376643304 45.097649210219714 0 0 0
2613 53 1 0 45.518314466178765 12.417427385309997 43.737306109384726 0 0 0
4169 84 1 0 -6.821170014251468 13.497571075583753 45.205412269311374 0 0 0
4170 84 1 0 -6.828193447005943 14.610819364131858 45.477480176221846 0 0 0
4221 85 1 0 7.171681421437391 14.7190640411205 45.21227901210268 0 0 0
2105 43 1 0 18.690206330942242 14.047408130848316 45.427499536746375 0 0 0
2104 43 1 0 17.698560914606336 14.710204601839623 45.41528307489407 0 0 0
2107 43 1 0 20.317623791649556 12.720351989156597 44.52547524549109 0 0 0
2106 43 1 0 19.504028710414072 13.352313354107334 45.129792057322376 0 0 0
2578 52 1 0 32.47637848753857 14.695254014956753 44.15514740872689 0 0 0
2579 52 1 0 33.038562810207466 14.119924924312507 45.01412081893074 0 0 0
2253 46 1 0 39.00047777459548 14.511712919874554 44.654223364508766 0 0 0
2254 46 1 0 39.19604325829347 14.044530523234105 43.549466203648684 0 0 0
2612 53 1 0 44.77466460083743 13.28043658177009 43.75289188021054 0 0 0
2611 53 1 0 43.96282425813912 14.135013887801296 44.0189569881681 0 0 0
4171 84 1 0 -6.9391970097743245 15.731348807075497 45.37462578824737 0 0 0
4219 85 1 0 5.707245404680282 15.241585224084169 43.518102386786744 0 0 0
4220 85 1 0 6.2783535755261575 14.959333253509465 44.49586619274415 0 0 0
2102 43 1 0 16.575861694998242 16.575660818197456 45.0396583209245 0 0 0
2103 43 1 0 16.957618502809837 15.622067938068927 45.274438497295876 0 0 0
2577 52 1 0 31.935247943421412 15.401336296213385 43.402841851253854 0 0 0
2609 53 1 0 43.062443601350004 15.991045043081984 44.77869454570292 0 0 0
2608 53 1 0 42.95144320842584 17.024394463959098 45.060268240044 0 0 0
2610 53 1 0 43.4601720862392 15.011682645733464 44.44287342718091 0 0 0
4172 84 1 0 51.83355584962122 16.76191412610031 45.080030825295594 -1 0 0
4251 86 1 0 -0.9328439622251417 18.72640407966617 43.62789413978773 0 0 0
2101 43 1 0 16.453256785664628 17.604954640592286 44.822478731253064 0 0 0
4950 99 1 0 36.85683169725445 18.99254355817456 44.70157583754691 0 0 -1
2607 53 1 0 42.988628604790875 18.16830796141445 45.40207992413782 0 0 0
4174 84 1 0 51.37684672263219 18.926555424940457 44.52106245422715 -1 0 0
4173 84 1 0 51.54748868277185 17.860877654911995 44.74820312477446 -1 0 0
4252 86 1 0 -0.24961400260373334 19.435257222893767 43.43756175921291 0 0 0
4628 93 1 0 10.057969016970592 19.47208551716462 43.79304453506488 0 0 0
4627 93 1 0 10.673884344271599 19.741829471943745 44.728223151434605 0 0 0
4626 93 1 0 11.606753724575947 19.733339103990712 45.29413380483797 0 0 0
2519 51 1 0 21.61933776021216 19.368476020584513 43.802229482621286 0 0 0
2518 51 1 0 22.165020897415435 19.470338889688858 44.85461455999775 0 0 0
4949 99 1 0 37.005258454101735 19.576376556902726 45.50238201065553 0 0 -1
4176 84 1 0 51.53229605559696 21.023430433443544 43.57100228761478 -1 0 0
4175 84 1 0 51.50106150444703 19.89306872273522 43.95173406121293 -1 0 0
4295 86 1 0 -3.759431073706396 22.663403642608056 44.62510525717931 0 0 0
4296 86 1 0 -3.49828665581739 23.315856465433882 43.68910917891032 0 0 0
4294 86 1 0 -3.909112822470546 21.902454578190095 45.43608568429563 0 0 0
2088 42 1 0 29.893659649049525 23.1326183630708 44.88958809936923 0 0 0
2002 41 1 0 8.077533862103076 24.749915838382183 44.57517814106917 0 0 0
2001 41 1 0 7.128324453608146 25.014623242671195 44.75789629398769 0 0 0
2004 41 1 0 10.099428671991667 24.171716641103227 43.58956291500243 0 0 0
2003 41 1 0 9.040863638597292 24.5781446019539 44.015455837530254 0 0 0
2000 40 1 0 14.729194959952338 24.3571905379961 44.56488548997996 0 0 0
1999 40 1 0 15.005545318812356 25.18811663062884 44.100299076139045 0 0 0
2089 42 1 0 29.393743063841402 23.84091025557821 44.19316273762689 0 0 0
4259 86 1 0 3.2564509282500875 26.072879340340624 43.56841844157346 0 0 0
4260 86 1 0 3.4987834184224087 26.916768884489368 44.19124406654084 0 0 0
4261 86 1 0 4.14306202068323 27.730320495711133 44.69568504219747 0 0 0
1998 40 1 0 15.50533163332808 25.99795733174544 43.71462555563637 0 0 0
1997 40 1 0 15.990483187766786 27.130329862351687 43.56536877858269 0 0 0
2725 55 1 0 37.942448989558784 28.000819020609832 43.4847991297348 0 0 0
1890 38 1 0 -3.8659675790746166 29.86626906170413 43.53917096683017 0 0 0
1891 38 1 0 -4.453270561444735 29.643161807281054 44.56929268844114 0 0 0
4262 86 1 0 4.419661670953164 28.54262686198901 45.359291975869155 0 0 0
4603 93 1 0 9.634726691518596 29.7591448044386 43.96660455455161 0 0 0
4604 93 1 0 10.544106976467361 29.90390461445918 44.77269274937193 0 0 0
4605 93 1 0 11.468347751186265 29.869795330641068 45.48231197853111 0 0 0
1996 40 1 0 15.945194110263245 28.240949516166395 43.4191355445046 0 0 0
2535 51 1 0 26.04120417739914 28.411507709320627 43.967775279650276 0 0 0
2536 51 1 0 26.64290030892295 28.477927936851206 44.91337623981615 0 0 0
2726 55 1 0 37.36788533079036 28.75606137100844 44.187204032016844 0 0 0
2727 55 1 0 37.07914278259793 29.673911473092613 44.8659242374541 0 0 0
1993 40 1 0 16.257612807455136 31.5959391645594 43.60252770224851 0 0 0
1531 31 1 0 27.312897735577167 32.284820132729635 43.977384583370224 0 0 0
2561 52 1 0 32.96615104272332 31.821695503611824 43.39449955671509 0 0 0
2728 55 1 0 36.76096189123925 30.66459105441868 45.262270239738555 0 0 0
2811 57 1 0 44.5884446681456 32.014544453470236 44.62043726988453 0 0 0
2810 57 1 0 44.953517870543 31.132815139608 45.27885854752979 0 0 0
2800 56 1 0 49.81848445231915 31.117309202432438 45.22106077611633 0 0 0
1992 40 1 0 16.195871617332788 32.53869622108521 44.32518083794056 0 0 0
1991 40 1 0 15.716141788520229 33.490140736256194 44.8388788299002 0 0 0
1990 40 1 0 15.014974423684205 34.18868272720901 45.484346003027824 0 0 0
1530 31 1 0 27.262740247871708 32.88945636935929 44.82901509064991 0 0 0
2559 52 1 0 31.73063435579917 33.6400956821406 43.83537376384038 0 0 0
2558 52 1 0 31.14857879389069 34.5800322651472 43.83243903034451 0 0 0
2560 52 1 0 32.448310367775605 32.79533223410122 43.513171031658686 0 0 0
2813 57 1 0 44.54724742767345 34.050027165033995 43.59627746592705 0 0 0
2812 57 1 0 44.531089381399426 32.89794460880238 43.95041102226987 0 0 0
1920 39 1 0 0.9076339961772842 35.38255867386825 43.76350437507623 0 0 0
1919 39 1 0 1.537194537915346 35.36096990348986 44.671676633406676 0 0 0
2556 52 1 0 29.668589872110847 36.321775767313895 43.828333800818264 0 0 0
2557 52 1 0 30.454811749282037 35.46504146458404 43.77385305514475 0 0 0
3113 63 1 0 48.70183113691054 35.58185027686668 43.786474121724346 0 0 0
3112 63 1 0 48.93643480763184 36.161324193405285 44.64923541568078 0 0 0
2554 52 1 0 28.500406078958335 38.21395567861565 43.679218116976806 0 0 0
2555 52 1 0 28.975353664292086 37.26011097620483 43.82478475804505 0 0 0
2552 52 1 0 27.496726508381045 40.20606425902207 43.5447921049229 0 0 0
2553 52 1 0 27.90476277856556 39.26490651731766 43.66860012192745 0 0 0
2738 55 1 0 35.722578376246325 40.57306873097524 45.13650300000078 0 0 0
2739 55 1 0 35.966487483982036 41.05764846330689 44.1043183261313 0 0 0
1862 38 1 0 1.8994346976752432 42.79768975373272 45.45819912322516 0 0 0
2551 52 1 0 27.298833844111524 41.170461644430205 43.500979411495955 0 0 0
2844 57 1 0 31.095029007254592 42.425195306746595 43.50818064083946 0 0 0
1481 30 1 0 49.26281205794591 43.181393228540955 44.88038268909043 0 0 0
1863 38 1 0 1.9586006713077644 43.4375715207275 44.448599518098675 0 0 0
1864 38 1 0 1.7775960617527904 44.049586371048065 43.51415876617517 0 0 0
1978 40 1 0 13.383375872377789 45.389111219413095 45.40843292831034 0 0 0
1654 34 1 0 19.253797044091463 43.7906559662184 43.95062537440716 0 0 0
1653 34 1 0 20.116698450290407 43.665166440356266 44.62590483079342 0 0 0
2866 58 1 0 26.031835109302424 45.28878398654434 44.3071863559464 0 0 0
2865 58 1 0 26.704823930267825 45.16420461567535 45.25549959745405 0 0 0
2842 57 1 0 31.3432525265683 44.65722199249148 43.389123430540266 0 0 0
2843 57 1 0 31.132119645796617 43.64035278654333 43.59592981262615 0 0 0
1479 30 1 0 49.618787718477016 44.9106720386832 43.394512099505135 0 0 0
1480 30 1 0 49.6353590240966 44.091016126001115 44.20409538728383 0 0 0
1841 37 1 0 -4.493694281561702 47.426507569538174 43.71436612022382 0 0 0
1938 39 1 0 8.109103903971492 46.50718285546205 43.68455058688318 0 0 0
1939 39 1 0 7.979621781025548 47.333611359986506 44.268584096161376 0 0 0
1977 40 1 0 13.871238743783767 46.43633470067373 45.337133733875866 0 0 0
1976 40 1 0 13.991952711541671 47.47965678504944 45.33228735183788 0 0 0
50 1 1 0 20.628215504022137 47.64680020984194 45.07866672221007 0 -1 0
2867 58 1 0 25.62066574679373 45.64150184461227 43.357592442242094 0 0 0
1840 37 1 0 -4.343567707813972 48.17471203207875 44.526853654304134 0 0 0
1839 37 1 0 -4.2256252004528845 49.16999586938206 45.2755168773309 0 0 0
1940 39 1 0 7.66462703214712 48.18385851467223 45.15961579051131 0 0 0
1975 40 1 0 14.115213481311226 48.57112221527735 45.48416711593524 0 0 0
49 1 1 0 21.352082653815078 48.059610602373155 44.54062253917033 0 -1 0
47 1 1 0 23.000701413879028 49.138971341449945 43.54383181859898 0 -1 0
48 1 1 0 22.208731145720453 48.64036923624028 44.02100010248278 0 -1 0
1821 37 1 0 10.377685377143475 51.29480345996145 43.39447716804098 0 0 0
1822 37 1 0 9.648447645379017 51.922749886958115 43.93032549852103 0 0 0
4147 83 1 0 51.62353373251719 51.927557524481216 44.714063675985464 -1 -1 0
1835 37 1 0 -2.072130826062105 -6.36345877851779 46.290439080819695 0 1 0
1834 37 1 0 -1.53411671495631 -5.404325189448781 46.12164997369802 0 1 0
1970 40 1 0 18.03799237484852 -6.84869828332674 46.852501784496255 0 1 0
1969 40 1 0 19.02931897688445 -6.615454586407252 47.25486021280085 0 1 0
2365 48 1 0 28.341318920072382 -6.421598913541101 46.31888158484452 0 0 0
2366 48 1 0 28.39262417739122 -6.658472718909691 47.41272918533489 0 0 0
1833 37 1 0 -0.7468010767390834 -4.576165259342081 45.9485090200542 0 1 0
1832 37 1 0 0.21779896735179083 -3.8419329374178495 45.75222477382704 0 1 0
1829 37 1 0 3.484440841357212 -3.1552883565930725 45.60743232248789 0 1 0
56 2 1 0 22.262606165821452 -3.0889894051463918 46.20091300126378 0 0 0
55 2 1 0 23.064196875456396 -3.1658144667369266 46.948268744165375 0 0 0
1044 21 1 0 40.78329605180267 -2.430503069301081 47.044627450698385 0 0 -1
1045 21 1 0 41.202591151310024 -2.56091674335456 45.99408124928693 0 0 -1
4241 85 1 0 -3.9290330813425047 1.671970256798124 47.64695756838798 0 0 0
4240 85 1 0 -2.7227528262927723 1.5605322713544454 47.502432857353405 0 0 0
151 4 1 0 10.622518845053557 1.2009630555190525 47.530808564398306 0 0 -1
4239 85 1 0 -1.5611917413118177 1.758400749577418 47.383606737607266 0 0 0
4238 85 1 0 -0.46917215913085136 1.9211627261055457 47.12889487188039 0 0 0
4237 85 1 0 0.6630069002883567 1.845664933946208 46.98995341041084 0 0 0
4236 85 1 0 1.8544611826916062 1.9027504113872258 46.84253411081816 0 0 0
4235 85 1 0 2.948186457032519 2.085870791743091 46.71223842741005 0 0 0
4234 85 1 0 3.8519662644102546 2.4942365893797254 46.88246628788097 0 0 0
4233 85 1 0 4.870953824115576 3.109953396179616 47.01735353828289 0 0 0
4232 85 1 0 5.748615363644311 3.761711537164489 47.13624665094998 0 0 0
2408 49 1 0 20.636584987756937 2.4135898981638966 45.717171355061204 0 0 0
2407 49 1 0 21.187712798564313 3.1997108188837045 46.35548150579693 0 0 0
2406 49 1 0 22.059307734293515 3.6227625582573566 47.07585416508673 0 0 0
2041 41 1 0 32.33982932243506 3.1260434493648663 45.668383040365754 0 0 0
2042 41 1 0 32.83099541891992 3.336728847788916 46.618925584482504 0 0 0
2043 41 1 0 33.185482042668475 3.6577081633260513 47.68212420448871 0 0 0
2281 46 1 0 41.226780451798 3.193727454564924 45.6732889031868 0 0 0
2282 46 1 0 41.214767974834665 3.3343829239867477 46.844257768547045 0 0 0
4231 85 1 0 6.464170426557503 4.601973767597961 47.046524365446366 0 0 0
4230 85 1 0 6.847271483860469 5.556720526495035 46.6758104757558 0 0 0
2405 49 1 0 22.785960537907883 4.1682616778405075 47.63669957960528 0 0 0
2404 49 1 0 23.468785639407752 5.002836766593395 47.6860049813188 0 0 0
2594 52 1 0 44.76095488674158 5.943797478068837 46.272781351803395 0 0 0
2595 52 1 0 45.13307387560884 5.059539757526495 45.7162220445658 0 0 0
4229 85 1 0 7.4444072815496645 6.518438124687397 46.466687724823835 0 0 0
4228 85 1 0 7.745082669398669 7.557873619876254 46.25077210460016 0 0 0
2592 52 1 0 43.1770799299316 7.029768522220613 47.51186277303543 0 0 0
2593 52 1 0 44.06342205413734 6.593510601899047 46.890614720348935 0 0 0
4227 85 1 0 8.135024044596346 8.555099072565016 46.38315847080904 0 0 0
4226 85 1 0 8.464637647519133 9.686870844998069 46.22960452690044 0 0 0
2480 50 1 0 15.743649167816322 8.508451453744593 45.95428176108314 0 0 0
2481 50 1 0 15.458228934562841 9.500882389160836 46.51270238940533 0 0 0
2482 50 1 0 15.366756909046003 10.496819583552405 47.04400636872192 0 0 0
2302 47 1 0 23.033426374454983 9.370429232080546 47.647125847463144 0 0 0
2303 47 1 0 23.78619215228613 10.070150619162359 47.23772226459665 0 0 0
4501 91 1 0 5.033197162895327 10.855281798884365 47.39625753593021 0 0 -1
4224 85 1 0 8.5856133166068 11.784494305789913 46.1074934470744 0 0 0
4225 85 1 0 8.690206796689399 10.781745313133802 46.24189985291287 0 0 0
2484 50 1 0 14.743401156364303 12.664820152642138 47.45414167721993 0 0 0
2483 50 1 0 14.98114983456942 11.496481596319923 47.20220830125261 0 0 0
2304 47 1 0 24.669882400153316 10.712308315234191 47.032097864240335 0 0 0
2305 47 1 0 25.608206747268817 11.100853285453002 46.53906417034203 0 0 0
2307 47 1 0 27.72071338255572 11.34606404943728 45.84549545406057 0 0 0
2306 47 1 0 26.645638120768577 11.382317712117054 46.23764441959461 0 0 0
2308 47 1 0 28.720011527330097 11.177777546754973 45.51548019238425 0 0 0
2582 52 1 0 34.59885598088427 12.159026113994948 47.355853370053694 0 0 0
4754 96 1 0 40.581610722959965 10.988749328093068 45.53747798095562 0 0 0
4753 96 1 0 40.973546053194134 11.696472921440854 46.36101333741127 0 0 0
4752 96 1 0 41.244420128577055 12.173208851536064 47.35984922228501 0 0 0
4222 85 1 0 7.880992378571052 13.83805514988173 45.672780683395814 0 0 0
4223 85 1 0 8.43636502385921 12.85180575171195 45.83184652592994 0 0 0
2581 52 1 0 33.91658181859403 12.697810492312222 46.504267469533424 0 0 0
2580 52 1 0 33.4151203095352 13.382577207740752 45.865242113300404 0 0 0
2252 46 1 0 38.80624130078518 15.08963086281928 45.61184921711969 0 0 0
2251 46 1 0 38.97108313572299 15.826054763223029 46.42919351517347 0 0 0
2083 42 1 0 30.877385596819085 18.31758168193539 47.49622302891811 0 0 0
4292 86 1 0 -4.730275994576332 20.656825447476884 47.25770370674273 0 0 0
4293 86 1 0 -4.304913868501934 21.26324062159781 46.3594724718518 0 0 0
4625 93 1 0 12.578724393746917 20.088355611342763 45.68604754605552 0 0 0
4624 93 1 0 13.574826539711585 20.611152406656476 46.013615648654856 0 0 0
4623 93 1 0 14.65305725882533 20.792952350595794 46.26575483435348 0 0 0
4622 93 1 0 15.765551060415666 20.90347343818649 46.79086647602776 0 0 0
4621 93 1 0 16.68423499001676 21.220737987097632 47.22149253599364 0 0 0
2517 51 1 0 22.51931520094414 19.874046839623734 45.80174787929127 0 0 0
2516 51 1 0 23.1993010936928 20.339381503648855 46.705060310416556 0 0 0
2515 51 1 0 23.566996214931624 20.913014311822156 47.42796952654602 0 0 0
2084 42 1 0 31.03985979909168 19.284121604635885 46.872441425978906 0 0 0
2085 42 1 0 31.115375686681208 20.366539372686553 46.51195727401907 0 0 0
2086 42 1 0 30.97264569756369 21.321724954264234 46.12624720333488 0 0 0
4948 99 1 0 37.30864913913155 20.409403808438633 46.118217887675065 0 0 -1
4947 99 1 0 37.972650786676276 21.174435904072062 46.759712361067365 0 0 -1
2606 53 1 0 42.98399200487028 19.307655634748937 45.860715459058 0 0 0
2604 53 1 0 43.649873272868696 21.21244409225297 46.95097646969604 0 0 0
2605 53 1 0 43.37626091889921 20.208007877396255 46.3420389218247 0 0 0
2791 56 1 0 48.67478060240537 21.437841497653412 47.63825784434508 0 0 0
4620 93 1 0 17.45216846030567 21.718937284208025 47.67280188993294 0 0 0
2087 42 1 0 30.53564031294229 22.292623656862272 45.52600333281438 0 0 0
4946 99 1 0 38.34514630713486 22.135191922005554 47.305815360833094 0 0 -1
2602 53 1 0 43.69583070218641 23.30365656765175 47.152510233264984 0 0 0
2603 53 1 0 43.85312110949554 22.33444610417607 47.01709894344361 0 0 0
2792 56 1 0 48.835535948459345 22.559351809212814 47.20090726199587 0 0 0
2601 53 1 0 43.5356038394883 24.329327424831863 47.014549227518444 0 0 0
2793 56 1 0 49.08560944088327 23.70499200384977 46.72055024017631 0 0 0
2794 56 1 0 49.215514061105864 24.834814902665308 46.44382131340303 0 0 0
2795 56 1 0 49.42354385287624 25.932212645887205 46.2777540462832 0 0 0
2796 56 1 0 49.646024584382076 27.00660273680806 46.21837651133899 0 0 0
1893 38 1 0 -5.409365852340699 29.929098350310827 46.5762385532858 0 0 0
1892 38 1 0 -5.015217112631735 29.66619440375777 45.56038599626638 0 0 0
4263 86 1 0 4.734048821969385 29.42586223334762 45.960877647100986 0 0 0
4606 93 1 0 12.334615803823793 29.842519101783715 46.23859295066384 0 0 0
4607 93 1 0 13.233401294493794 29.72558949547227 46.87322383822637 0 0 0
4608 93 1 0 14.0541870860203 29.77017232593014 47.65967969620779 0 0 0
2537 51 1 0 27.196649295365724 28.576184554746657 45.81723997211276 0 0 0
2538 51 1 0 27.935018727274468 28.65753857153015 46.600734382503845 0 0 0
2539 51 1 0 28.560581942114556 29.077907287186108 47.459929186047276 0 0 0
2809 57 1 0 45.05304033872227 30.16571836887092 45.8856077196263 0 0 0
2808 57 1 0 45.365737255058804 29.337090061427308 46.57563353398846 0 0 0
2807 57 1 0 45.61129028794633 28.45626037108814 47.251241840934284 0 0 0
2798 56 1 0 49.77152649908866 29.163457663392432 45.75250298751684 0 0 0
2799 56 1 0 49.83968172504981 30.20471715042132 45.62691879328686 0 0 0
2797 56 1 0 49.907388617964706 28.090752993528703 46.02896151244797 0 0 0
1894 38 1 0 -5.897328741938058 30.214774218663067 47.51320445239949 0 0 0
4264 86 1 0 4.833612235711667 30.396643187142153 46.55593674505595 0 0 0
4265 86 1 0 4.686860482200627 31.263539050842954 47.232379932447756 0 0 0
2729 55 1 0 36.28723962165567 31.417646723835382 45.84045944870859 0 0 0
1851 38 1 0 -2.6313353930763803 33.56466081856056 45.75860304393677 0 0 0
1852 38 1 0 -2.1928656969248754 34.34967226968117 46.190996973105435 0 0 0
1529 31 1 0 27.437814370476307 33.53281551952124 45.812574379518814 0 0 0
1528 31 1 0 27.618850306154382 34.08955495517815 46.742182529980525 0 0 0
2730 55 1 0 36.087531440849254 32.436239575122876 46.267378838423966 0 0 0
2731 55 1 0 35.76596327840004 33.56295828624359 46.69958033694605 0 0 0
1853 38 1 0 -2.162992929056003 35.151668753700946 47.04987752299474 0 0 0
1918 39 1 0 2.1416454143622135 35.37627302673334 45.60308208637225 0 0 0
1917 39 1 0 2.962062713378398 35.593103250894295 46.334995231701846 0 0 0
1916 39 1 0 3.7623044394245966 35.887860057326094 47.04870963071802 0 0 0
1987 40 1 0 12.849383565970562 36.34292125350706 47.07415290948395 0 0 0
1989 40 1 0 14.128747889604059 34.86652521430123 45.85946956702628 0 0 0
1988 40 1 0 13.412678656172156 35.508958376289876 46.479253160125 0 0 0
2733 55 1 0 35.39535873247464 35.75961426370888 47.13064107937739 0 0 0
2732 55 1 0 35.46564970833898 34.65188462718449 46.841372982296285 0 0 0
3111 63 1 0 49.2721802033178 36.76518925228181 45.619873421726886 0 0 0
3107 63 1 0 -6.426675188345168 38.94220218548085 47.31804996004103 1 0 0
1985 40 1 0 11.97594112660097 38.41706494442562 47.624085672797385 0 0 0
1986 40 1 0 12.266866849425721 37.25640371180728 47.42610540535133 0 0 0
1951 40 1 0 22.167730378375495 37.122749287873795 46.222606665474494 0 0 0
1952 40 1 0 22.54734055000788 37.778876060033525 47.03307305448325 0 0 0
2734 55 1 0 35.14201490293185 36.87466063771864 47.22460963860886 0 0 0
2735 55 1 0 35.24493355637946 38.04946140656575 47.05129135270676 0 0 0
3110 63 1 0 49.73773017354283 37.36535336177507 46.48491001415249 0 0 0
3109 63 1 0 50.54397975972387 38.00515194592566 46.97420628731561 0 0 0
3108 63 1 0 51.54322476865384 38.58583954168293 47.20294240772613 0 0 0
3106 63 1 0 -5.694912279723627 39.812534510246046 47.18975520222801 1 0 0
3105 63 1 0 -4.922850055369446 40.6694776401865 46.9723517722154 1 0 0
1859 38 1 0 0.7687386149519003 40.50491018180358 47.655326325452414 0 0 0
1984 40 1 0 11.855841565106527 39.59355392180456 47.62888592154987 0 0 0
1983 40 1 0 11.626629524472934 40.65739184740489 47.26599855125044 0 0 0
2736 55 1 0 35.26738755019448 38.98016571321416 46.476703400795756 0 0 0
2737 55 1 0 35.31271647199511 39.92845663655747 45.91116787262895 0 0 0
3104 63 1 0 -4.039998632298685 41.373219334469276 47.01041562096738 1 0 0
3103 63 1 0 -3.2683452382626723 42.3391994067515 47.13398093505407 1 0 0
3102 63 1 0 -2.591988559176872 43.05365879816751 47.620575828477925 1 0 0
1860 38 1 0 1.3840170693378533 41.38632089203879 47.11993597979955 0 0 0
1861 38 1 0 1.808681097510996 42.071263216622015 46.3324542771883 0 0 0
1982 40 1 0 11.77032567208658 41.64108918649177 47.03513460972328 0 0 0
1981 40 1 0 11.904662317342085 42.64228800918709 46.51528188075039 0 0 0
1651 34 1 0 21.673748014648954 43.3185769477852 46.099145410373815 0 0 0
1484 30 1 0 47.45247170814793 41.58746020334592 47.21578549432896 0 0 0
1482 30 1 0 48.730675619758465 42.425232787124145 45.5424673682012 0 0 0
1483 30 1 0 48.091959299826975 41.90330163120228 46.39815225233659 0 0 0
1980 40 1 0 12.316572466565686 43.63156796500345 46.028119554733685 0 0 0
1979 40 1 0 12.775981567653838 44.48610609338517 45.52722451764842 0 0 0
1652 34 1 0 20.84428952116393 43.46652162863729 45.60429731166689 0 0 0
2864 58 1 0 27.286784166733216 44.890680852306666 46.16115205737689 0 0 0
2863 58 1 0 28.084872293326264 44.53604813751498 46.77311974395711 0 0 0
2862 58 1 0 28.53619994970113 43.93001357332489 47.57498717196307 0 0 0
1942 39 1 0 6.510343397553337 49.441114868076156 46.603043126097425 0 0 0
1941 39 1 0 7.064507434297583 48.78460786043685 45.91104234753188 0 0 0
1974 40 1 0 14.517727383303352 49.64473977914613 45.65650805982776 0 0 0
1838 37 1 0 -3.9373265246347766 49.99918214965332 45.913578607603164 0 0 0
1836 37 1 0 -2.6837380396980715 51.8441202786272 46.25861948929489 0 0 0
1837 37 1 0 -3.2399511172832454 50.87964875106174 46.140064480807084 0 0 0
1943 39 1 0 6.211211529845754 50.40432437994949 47.13880228684691 0 0 0
1971 40 1 0 16.967033265056223 51.8155624091687 46.56021991222558 0 0 0
1973 40 1 0 15.254083430100206 50.45809117934354 46.015321376241666 0 0 0
1972 40 1 0 16.056036078430164 51.204968720775945 46.23362621672236 0 0 0
4150 83 1 0 49.395867853864885 51.46386106629361 47.01689802999153 -1 -1 0
4149 83 1 0 50.12227666701421 51.43763422430074 46.30799182171798 -1 -1 0
4148 83 1 0 50.9262737515438 51.61396492385947 45.54489129939195 -1 -1 0
1946 39 1 0 5.2733524725696785 -5.980611102607446 49.09525288966429 0 1 0
1947 39 1 0 5.123228044575394 -5.014328000262628 49.51786832753079 0 1 0
2388 48 1 0 13.32525626505338 -5.426631632530452 49.27079485498844 0 0 0
2387 48 1 0 13.401351258814987 -6.425124150441353 49.72404488491924 0 0 0
1968 40 1 0 19.963288261040702 -6.569914447723978 47.88578346433912 0 1 0
1967 40 1 0 20.824454333735194 -6.8911397015214595 48.527215971991474 0 1 0
2367 48 1 0 28.57820211984075 -6.992060647850115 48.461032183764196 0 0 0
2389 48 1 0 13.492178172958907 -4.454392126849069 48.77700886982089 0 0 0
2390 48 1 0 13.75192626931172 -3.433897192473409 48.47018229656419 0 0 0
54 2 1 0 23.828115315038005 -3.348989417329769 47.77637249753055 0 0 0
52 2 1 0 24.943359851424173 -4.233028033950531 49.381971908998146 0 0 0
53 2 1 0 24.485672236444856 -3.6434780802256626 48.61815461493523 0 0 0
1503 31 1 0 33.56155896546201 -4.4251999759179474 49.5647340099951 0 1 0
1502 31 1 0 33.18946942016377 -3.309028483553333 49.28450426618798 0 1 0
2391 48 1 0 14.285754712941197 -2.544995687189946 47.98395409724686 0 0 0
2392 48 1 0 14.832402229440444 -1.6463808468124022 47.879000326860194 0 0 0
2393 48 1 0 15.528831156906852 -0.6424409723974616 47.98862947423427 0 0 0
1501 31 1 0 32.58542111496671 -2.5677215087849907 48.911339230276724 0 1 0
1042 21 1 0 40.18412702819386 -2.4489017343577455 49.17811493433721 0 0 -1
1043 21 1 0 40.41857266587093 -2.2998019681234148 48.10252137999425 0 0 -1
2394 48 1 0 16.291721674365462 0.19697973953456746 47.94198841083478 0 0 0
2395 48 1 0 16.80151098136416 1.2681588980839016 48.006498625714094 0 0 0
4242 85 1 0 -4.956010742209083 1.8652862529578895 48.02855824848963 0 0 0
4243 85 1 0 -5.920956634930198 1.8735214504266813 48.55074580556889 0 0 0
152 4 1 0 10.805253902300437 2.1028096816183317 48.059411882553846 0 0 -1
153 4 1 0 10.638880996571146 3.1350813038209258 48.609389257995275 0 0 -1
2396 48 1 0 17.20860101888541 2.3932859163613216 48.039547831123684 0 0 0
2397 48 1 0 17.487545616534813 3.484162589864349 48.148600632265016 0 0 0
2284 46 1 0 41.13723233336825 3.7187274253574545 49.076840008545204 0 0 0
2283 46 1 0 41.1621425517728 3.571335172895648 48.00496050075166 0 0 0
4244 85 1 0 52.05791638413738 1.7779994141607836 48.97170419285157 -1 0 0
4245 85 1 0 51.13118520038909 1.8610315978531409 49.54492958913481 -1 0 0
154 4 1 0 10.614745295294616 4.075636938437824 49.3293447955276 0 0 -1
2399 48 1 0 18.51369691801547 5.523702918257021 48.15885314598368 0 0 0
2398 48 1 0 17.962229191304232 4.585635568246621 48.12281896348743 0 0 0
2403 49 1 0 24.358202086443413 5.602988908064342 47.74698535382308 0 0 0
2402 49 1 0 25.321009157422065 6.120194061690229 47.712601331114264 0 0 0
2044 41 1 0 33.656672269914885 4.3170373440219185 48.57729904583615 0 0 0
2045 41 1 0 33.93338257068422 5.263965437540349 49.40776280705333 0 0 0
2400 48 1 0 19.204359216322896 6.299861483130724 48.17329634446237 0 0 0
2401 49 1 0 26.403992809125985 6.23934330792609 47.71364057476693 0 0 0
2591 52 1 0 42.37140770199818 7.57013167424874 47.959924366039914 0 0 0
2590 52 1 0 41.60839505743999 7.966374965682258 48.619184636240085 0 0 0
2301 47 1 0 22.350775466745418 8.84955449212862 48.210802077631875 0 0 0
2586 52 1 0 37.74749103299104 9.695647720416053 48.964516070697826 0 0 0
2587 52 1 0 38.6724228479307 9.135491204164946 49.11635949590608 0 0 0
2585 52 1 0 36.869892596213475 10.198692589624303 48.50473482516139 0 0 0
2588 52 1 0 39.731203278480216 8.870645355002429 49.25387099771128 0 0 0
2589 52 1 0 40.655565968099374 8.338835495929088 49.14808396419365 0 0 0
649 13 1 0 45.41500782941476 9.549321709109579 49.50840361831647 0 0 -1
650 13 1 0 45.627369279937085 10.254593012871263 48.84582367921859 0 0 -1
4503 91 1 0 3.9310793160143853 12.303627839215734 48.376053506849914 0 0 -1
4502 91 1 0 4.414840561555518 11.303661597507846 48.02428208304012 0 0 -1
2583 52 1 0 35.113151022920434 11.535729822572316 48.05041589430745 0 0 0
2584 52 1 0 36.0299794900448 10.96210864266483 48.305144817281764 0 0 0
969 20 1 0 -2.2969916646886612 13.939089594424336 49.855931099690096 0 0 -1
970 20 1 0 -2.436008459252723 14.877924114827056 49.201731643045505 0 0 -1
4504 91 1 0 3.6387994462871935 13.025256417115758 49.068482949078074 0 0 -1
2485 50 1 0 14.42485060086904 13.650682613973633 47.76755091899066 0 0 0
2486 50 1 0 14.131653284801189 14.676615947929704 48.252580939403046 0 0 0
4751 96 1 0 41.555428043052 12.770860926827408 48.202668009384084 0 0 0
971 20 1 0 -2.204935279681859 15.843409044633542 48.855141492142536 0 0 -1
972 20 1 0 -1.8010332067753922 16.968251968820436 48.683886899189716 0 0 -1
2487 50 1 0 14.256276882014495 15.765592638532095 48.79782089160365 0 0 0
2488 50 1 0 14.376081798447924 16.558868783484982 49.610734267048215 0 0 0
2080 42 1 0 30.0551495373363 15.731256239510993 49.40278251528871 0 0 0
2081 42 1 0 30.291445831174812 16.51666925621891 48.67503978029905 0 0 0
2786 56 1 0 46.922801721181756 16.595193095382694 49.757515129029365 0 0 0
973 20 1 0 -1.39157386132847 18.058178472102217 48.45322264107224 0 0 -1
974 20 1 0 -0.49880422779482125 18.774241957806563 48.12716163420496 0 0 -1
2082 42 1 0 30.566103726096664 17.276661939875755 47.994576606849044 0 0 0
2787 56 1 0 47.20889586368619 17.540408336374394 49.136623589499195 0 0 0
2788 56 1 0 47.55095628777457 18.461385792295943 48.54385868322708 0 0 0
4290 86 1 0 -5.872249094910249 19.913110766250014 49.14858057057726 0 0 0
4291 86 1 0 -5.228499647120192 20.367765446582208 48.20214372701746 0 0 0
975 20 1 0 0.5005847521281381 19.477496405157815 47.8941203966138 0 0 -1
976 20 1 0 1.6398917270092466 19.687550937458198 47.72336687834724 0 0 -1
977 20 1 0 2.7364495086186333 19.802485300704536 48.022524808400924 0 0 -1
978 20 1 0 3.7422004378913063 19.96457129658177 48.27506724805324 0 0 -1
980 20 1 0 5.8410240028300455 19.893124827146508 49.21585181001748 0 0 -1
979 20 1 0 4.78118908081552 19.998250141720906 48.77330573607067 0 0 -1
981 20 1 0 6.7524838310236905 19.421458356070083 49.79669814628999 0 0 -1
2789 56 1 0 47.88615906381753 19.414112272316608 48.206616018824846 0 0 0
2790 56 1 0 48.23073878892498 20.49617517431944 48.01198264958694 0 0 0
4619 93 1 0 18.470722706828624 21.981973192087793 47.90847246856137 0 0 0
4617 93 1 0 20.049065720244656 23.416916296941142 48.18003180843868 0 0 0
4618 93 1 0 19.399942011498275 22.459756488937668 48.05291081191633 0 0 0
2514 51 1 0 24.11877581799927 21.629248168455586 48.105423330726275 0 0 0
2513 51 1 0 24.673755747408062 22.3876923043107 48.69754561155818 0 0 0
2512 51 1 0 25.081032521329725 23.128403199443117 49.38765852530893 0 0 0
2768 56 1 0 33.35909417811871 22.900719736479047 49.813345901992584 0 0 0
4945 99 1 0 38.50540121189124 23.121627412145735 47.74855744034633 0 0 -1
4616 93 1 0 20.40197555082838 24.542330608968488 48.08513341469851 0 0 0
4615 93 1 0 20.297627436614135 25.680738809729355 48.019994599867665 0 0 0
2511 51 1 0 24.95282912141095 24.21323623913967 49.59306188646815 0 0 0
2767 56 1 0 33.54578848520225 24.09674518755112 49.846192066452225 0 0 0
4944 99 1 0 38.5333587057261 24.14598987939924 48.277581901723636 0 0 -1
4943 99 1 0 38.619939738557825 25.15529351758735 48.89982425112933 0 0 -1
4942 99 1 0 39.11025075649097 25.788380563653647 49.61204859872804 0 0 -1
2804 57 1 0 46.28591312503891 25.801109500415222 49.09100647003784 0 0 0
2803 57 1 0 46.57545440078509 24.948053122874377 49.697018643356785 0 0 0
4613 93 1 0 19.059280325581042 27.540773140463376 47.88424501130564 0 0 0
4614 93 1 0 19.849236511786547 26.734012935532654 47.73414050774227 0 0 0
2806 57 1 0 45.784998238123805 27.542927734497024 47.90525914268908 0 0 0
2805 57 1 0 46.14859299179445 26.638624459447975 48.42545311064588 0 0 0
4609 93 1 0 15.126033060707812 29.63862565886187 48.19912346232413 0 0 0
4610 93 1 0 16.233027131222602 29.332452326228125 48.21753794129178 0 0 0
4611 93 1 0 17.251532928637808 28.840541364972637 48.185963821210834 0 0 0
4612 93 1 0 18.3213141486141 28.37830551550656 48.130786775831844 0 0 0
2540 51 1 0 29.355984568788998 29.540848764450264 48.196382553520024 0 0 0
2541 51 1 0 30.025622321272444 30.1228000445031 48.957368225529045 0 0 0
1895 38 1 0 -6.468373777903847 30.6047172699069 48.38077514541659 0 0 0
4267 86 1 0 4.378573680444855 32.23378515310664 49.226899208199335 0 0 0
4266 86 1 0 4.526512606013722 31.919510181436788 48.15145255274744 0 0 0
2542 51 1 0 30.731063658213376 30.58584036745562 49.649463693399056 0 0 0
2759 56 1 0 37.69185618634411 31.304985009494384 49.80945241325084 0 0 0
2758 56 1 0 38.62645371628171 31.814056477599415 49.341989808463595 0 0 0
2757 56 1 0 39.5134455811737 32.20642591194633 48.70150962535755 0 0 0
1896 38 1 0 51.92464242752209 30.735443299230084 49.24310243552856 -1 0 0
1904 39 1 0 15.373400609329497 33.87668397106636 49.83387578649159 0 0 0
1903 39 1 0 16.409877432683455 33.76243878684182 49.46231655881679 0 0 0
1901 39 1 0 18.137508404783862 32.62470434251435 48.89971188911528 0 0 0
1902 39 1 0 17.27455988527296 33.212794073356406 49.180615305627704 0 0 0
1527 31 1 0 27.808239387376254 34.50830416434625 47.88206063216213 0 0 0
2756 56 1 0 40.616221822522064 32.65972217566427 48.423190174832506 0 0 0
2755 56 1 0 41.57486142887253 33.01240940573228 48.09180053890457 0 0 0
2754 56 1 0 42.40858791948628 33.76316946568282 47.928104958155885 0 0 0
2753 56 1 0 43.370208683576024 34.41416589589556 47.88378434839304 0 0 0
1854 38 1 0 -1.7977550661457111 35.86849222458308 47.827500770055735 0 0 0
1855 38 1 0 -1.2612214485713293 36.77096057137662 48.21141318405749 0 0 0
1915 39 1 0 4.431232528566415 36.21095889232748 47.844781291000274 0 0 0
1914 39 1 0 5.242283421998969 36.15939279914101 48.696202626016074 0 0 0
1913 39 1 0 6.069324528251905 36.00875976775851 49.31092852631132 0 0 0
1526 31 1 0 27.648856513331843 34.96356918493389 48.94157012645766 0 0 0
2752 56 1 0 44.37054563300456 35.03819784895531 47.7840860987383 0 0 0
2751 56 1 0 45.27809998574906 35.644681080994864 47.847864748461 0 0 0
1856 38 1 0 -1.0157594744235958 37.80118007460832 48.503758837976505 0 0 0
1857 38 1 0 -0.35690236802953546 38.65815874891532 48.30678672823533 0 0 0
1953 40 1 0 22.770163851196855 38.696113731476906 47.710279852975475 0 0 0
1858 38 1 0 0.22836639930485544 39.59507700653437 47.96803374985706 0 0 0
1954 40 1 0 23.14454214090263 39.636598701716075 48.31579741993465 0 0 0
1955 40 1 0 23.392093415098273 40.54035304897333 49.010861187737724 0 0 0
1956 40 1 0 23.500842293484222 41.54845773898363 49.67513673492553 0 0 0
2861 58 1 0 29.164879397077105 43.2792879061717 48.29953617534412 0 0 0
2860 58 1 0 29.999025826520384 42.85929329400189 48.912333356170926 0 0 0
2859 58 1 0 30.885356377789318 42.44779074986399 49.539108537277954 0 0 0
1491 30 1 0 40.28024297359355 43.090639749306135 49.245962071016955 0 0 0
1490 30 1 0 41.24767208376548 42.64383907483435 49.2255803928831 0 0 0
1489 30 1 0 42.29248581105857 42.12959813137446 49.07906678341399 0 0 0
1487 30 1 0 44.488722915742485 41.65270222547035 48.85206881132 0 0 0
1488 30 1 0 43.36696720925384 41.778617092401845 49.09683914566303 0 0 0
1485 30 1 0 46.681499467020096 41.573034156120485 47.956227204594185 0 0 0
1486 30 1 0 45.58573100030701 41.65650884165664 48.395968270566414 0 0 0
3101 63 1 0 -1.6632748909797217 43.42065296164403 48.00449732104844 1 0 0
1495 30 1 0 36.351498610296794 45.32560115779414 48.607990644555194 0 0 0
1493 30 1 0 38.319693946854635 44.13411849511214 49.168607172039586 0 0 0
1494 30 1 0 37.25853287014518 44.69602726666002 48.92026047825105 0 0 0
1492 30 1 0 39.34992738955905 43.75948058199916 49.0571718057191 0 0 0
1498 30 1 0 33.756028187327956 47.32507183076336 48.06858960390189 0 0 0
1497 30 1 0 34.69131652855491 46.74154192848597 48.1554824108342 0 0 0
1496 30 1 0 35.58353730083264 46.06112559921182 48.315292782126384 0 0 0
1500 30 1 0 31.789770425680953 48.19488362925104 47.90808974380125 0 0 0
1499 30 1 0 32.80735060924591 47.872523498740776 48.02060481117231 0 0 0
1944 39 1 0 5.772808688317419 51.24370448744707 47.85516278470761 0 0 0
1945 39 1 0 5.485479540227897 52.07295791524832 48.59575028064992 0 0 0
1966 40 1 0 21.6245905411491 51.66728466907502 49.20429219802857 0 0 0
1965 40 1 0 22.290565865636633 50.883194169857816 49.67020527188811 0 0 0
2368 48 1 0 28.641026850603893 51.91915221292559 49.55938455913529 0 -1 0
1504 31 1 0 33.75890843862561 -5.468576456909481 50.05669474274528 0 1 0
1505 31 1 0 33.85991254343871 -6.516288199204735 50.40360885482565 0 1 0
1948 39 1 0 4.890484092822174 -4.057156631640267 50.18955657814853 0 1 0
1949 39 1 0 4.456650086868134 -3.38128814841476 50.90369186466712 0 1 0
51 2 1 0 25.456348153671335 -4.753104634407243 50.07372029348072 0 0 0
1039 21 1 0 38.778905493973376 -3.925286372403385 51.88045560655611 0 0 -1
1041 21 1 0 39.74586591989777 -2.957747966436362 50.16414786972027 0 0 -1
1040 21 1 0 39.362933033729036 -3.515427508012879 51.076770067947734 0 0 -1
1950 39 1 0 3.9887983589215987 -2.51031269616641 51.156011642684014 0 1 0
185 4 1 0 24.87489181888862 -0.6315860958479743 51.77211934682456 0 0 -1
183 4 1 0 23.9078202079043 1.394782374647256 51.69964682870312 0 0 -1
184 4 1 0 24.229916510144186 0.2796385220982992 51.48179114957969 0 0 -1
1062 22 1 0 31.76236822685417 0.8133351293170963 51.095223810594305 0 0 -1
1063 22 1 0 30.896168945056367 1.483243813794887 50.675789496915684 0 0 -1
1060 22 1 0 33.37114990777247 -0.30287019951332317 51.97303317136301 0 0 -1
1061 22 1 0 32.58249649930248 0.25436930767482446 51.3934910522494 0 0 -1
182 4 1 0 23.606265178473237 2.4761636361368238 52.05934264437417 0 0 -1
1065 22 1 0 29.4023378228206 3.1198135484243066 50.783915561173416 0 0 -1
1064 22 1 0 30.053800367398782 2.154567648344473 50.854816302924455 0 0 -1
2285 46 1 0 40.93832336993249 3.7503968567588926 50.117101402740445 0 0 0
2286 46 1 0 40.562516283122086 3.8427414872433925 51.14472189815757 0 0 0
4249 85 1 0 47.622202579650505 3.3578383700276 52.031107346052075 -1 0 0
4248 85 1 0 48.30128568525503 2.9931897550798983 51.244872121645756 -1 0 0
4247 85 1 0 49.24143149042227 2.546765409346666 50.65944440105131 -1 0 0
4246 85 1 0 50.043360663729125 2.0944120153388104 50.060934402388405 -1 0 0
156 4 1 0 10.357118020927395 6.087678768462352 50.460067885481905 0 0 -1
155 4 1 0 10.608600508736254 5.065609971921437 49.87943993651389 0 0 -1
1068 22 1 0 27.849284381074963 6.050346673952834 51.19094052616355 0 0 -1
1066 22 1 0 28.770524588365078 4.057386699062206 50.657776804746184 0 0 -1
1067 22 1 0 28.202157491381588 4.981627640682218 50.980476883637564 0 0 -1
2046 41 1 0 34.35401049009172 6.127848638984804 50.02549415076364 0 0 0
157 4 1 0 10.07371361124131 7.061152496223951 50.917809922585185 0 0 -1
158 4 1 0 9.904378670964446 8.068715562074352 51.455886793915326 0 0 -1
1069 22 1 0 27.806468502759504 7.188359392987828 51.22920915741369 0 0 -1
2047 41 1 0 34.77330338698887 6.840896093378067 50.773983339281926 0 0 0
2048 41 1 0 34.97354300191759 7.596715490306039 51.544229279898914 0 0 0
647 13 1 0 44.90264671819405 8.242883253363196 51.391071720207556 0 0 -1
2065 42 1 0 15.534505785455215 9.979092681105296 51.92516737096409 0 0 0
1070 22 1 0 27.86481924486329 8.32482491978361 51.582826006111475 0 0 -1
648 13 1 0 45.162634133398804 8.883972341610312 50.4842556373605 0 0 -1
966 20 1 0 -2.0118017109884896 11.341084451854602 51.824471092370686 0 0 -1
967 20 1 0 -1.8327035842520163 12.213156466799266 51.14765315109393 0 0 -1
2066 42 1 0 16.28740180279293 10.636465391335534 51.359814503002085 0 0 0
2067 42 1 0 17.049070087698674 11.295767729615157 50.874994143980494 0 0 0
2068 42 1 0 17.838640350322173 12.120496280115393 50.579113328052465 0 0 0
2069 42 1 0 18.827724131104695 12.50698906607313 50.459977821809346 0 0 0
968 20 1 0 -1.9109501217203202 13.040613031917946 50.45815607295776 0 0 -1
4506 91 1 0 2.8410042957405106 14.651136742181759 50.557347072069966 0 0 -1
4505 91 1 0 3.461999264135858 13.97505624172557 49.95372206213631 0 0 -1
2071 42 1 0 21.104917438019967 13.195677039889942 50.5408067766947 0 0 0
2070 42 1 0 19.93569043415047 12.886000984969277 50.44224233496397 0 0 0
2072 42 1 0 22.148399230579628 13.443240281770924 50.6500872011467 0 0 0
2073 42 1 0 23.3118142844417 13.47800731933896 50.837901088377286 0 0 0
2074 42 1 0 24.348106480000684 13.462419765989681 51.33341233319572 0 0 0
2075 42 1 0 25.530024607693797 13.673837473791332 51.649238907496866 0 0 0
2077 42 1 0 27.674503279026133 14.500837563181681 51.48826963152582 0 0 0
2076 42 1 0 26.55703417142294 14.101371546222856 51.525000485663824 0 0 0
2078 42 1 0 28.575849553470235 14.528930605013652 50.82606230370083 0 0 0
4507 91 1 0 2.3581918654820204 15.299638743808856 51.407477518061896 0 0 -1
2079 42 1 0 29.381957698974194 15.075925320590905 50.12577046095653 0 0 0
2783 56 1 0 44.5372319604662 15.280793575180857 51.69085638428295 0 0 0
2784 56 1 0 45.41546297476673 15.53389888004856 50.97182934752834 0 0 0
2785 56 1 0 46.40211337195001 16.119895847115792 50.47244013913157 0 0 0
982 20 1 0 7.714540950410693 19.146706334859427 50.32100244966932 0 0 -1
983 20 1 0 8.399984071224608 19.05294990881525 51.20306813675852 0 0 -1
2489 50 1 0 14.808965482572784 17.487119956441106 50.10575100145301 0 0 0
2490 50 1 0 15.141494786769076 18.419944388029066 50.66337295632034 0 0 0
2772 56 1 0 33.49033919011541 18.903869258351055 51.94540130337127 0 0 0
4289 86 1 0 -6.283718986882125 20.02858275727985 50.202297619477264 0 0 0
4288 86 1 0 -6.866819431681466 20.268656442206037 51.1379689232937 0 0 0
2492 50 1 0 15.62394892887182 20.295942719835374 51.860660471732416 0 0 0
2491 50 1 0 15.371726727467387 19.399593911405045 51.16216041368721 0 0 0
701 15 1 0 25.655437206438226 20.004936579262328 51.564628043554066 0 0 -1
2771 56 1 0 33.36310058581555 19.92705729629328 51.309879868395114 0 0 0
2770 56 1 0 33.076918437964714 20.995562473470383 51.02163478648445 0 0 0
751 16 1 0 3.993030922492489 22.486920286959588 51.68012589348969 0 0 -1
752 16 1 0 4.865555259612961 22.811672782722408 51.980177999757295 0 0 -1
2769 56 1 0 33.09208613931779 21.861734677782064 50.28183394227463 0 0 0
2801 57 1 0 46.872193103346966 23.16092677404672 51.03979775083687 0 0 0
2510 51 1 0 24.936793263429763 25.320831972419235 49.95526900893347 0 0 0
2766 56 1 0 33.776909715284724 25.159072973453778 50.1049303673634 0 0 0
2802 57 1 0 46.759240901518055 23.94071259035358 50.367562128459014 0 0 0
3590 72 1 0 1.913608483358756 26.602339828850397 51.5177210109318 0 0 -1
3591 72 1 0 2.801803477128836 27.117592652567676 50.91526910455809 0 0 -1
3592 72 1 0 3.8232033250852773 27.453005362784122 50.64023209944178 0 0 -1
3593 72 1 0 4.877820268338168 27.684896772105425 50.527107749494355 0 0 -1
3594 72 1 0 5.984011748616038 27.828728674409465 50.32277921264414 0 0 -1
3596 72 1 0 8.216180296477878 27.667444127617063 50.2899469344943 0 0 -1
3595 72 1 0 7.063088462270441 27.93205331371502 50.27770997361276 0 0 -1
3597 72 1 0 9.359073934274939 27.46333351948841 50.23089937566043 0 0 -1
3598 72 1 0 10.288498123255987 27.112883096644158 50.590108106429014 0 0 -1
3599 72 1 0 11.20798199303486 27.169319565441967 51.15376030148797 0 0 -1
3600 72 1 0 12.098793302244628 27.479339621353027 51.475909271221774 0 0 -1
2508 51 1 0 24.959302599379722 27.456153952315518 50.31059571144045 0 0 0
2509 51 1 0 24.830465776495185 26.3820130622684 50.20753070543076 0 0 0
2765 56 1 0 34.184831524190294 26.136492808890512 50.43229581373145 0 0 0
2764 56 1 0 34.431711312199 27.195291776503804 50.665450504270055 0 0 0
4941 99 1 0 39.71544500143173 26.666513863157718 50.12443032827079 0 0 -1
4940 99 1 0 40.40570655480207 27.44688812052548 50.606225339366574 0 0 -1
2507 51 1 0 25.10599273764801 28.561012382594516 50.413394316534564 0 0 0
2506 51 1 0 24.72263558807968 29.541818245429727 50.43541794170402 0 0 0
2763 56 1 0 34.71855556027703 28.254154550464243 50.62741208466867 0 0 0
2762 56 1 0 35.271877736436984 29.235890252833286 50.503183690454264 0 0 0
2761 56 1 0 36.19495548954933 29.964947746353495 50.541538991935425 0 0 0
4939 99 1 0 41.06254653071534 28.03019384888125 51.21851762873357 0 0 -1
4938 99 1 0 41.41777978678873 28.81903029441201 52.033365385945466 0 0 -1
4268 86 1 0 3.9753576935758943 32.337615913366506 50.32658975238496 0 0 0
2505 51 1 0 24.26390524109418 30.506207542748673 50.67651706270153 0 0 0
2504 51 1 0 23.942959213539652 31.570860812895372 50.680351442523296 0 0 0
2543 51 1 0 31.057720772840607 31.265916073839037 50.455709091554674 0 0 0
2544 51 1 0 31.770181974866095 31.76932615274771 51.20878126389037 0 0 0
2545 51 1 0 32.13665544091323 32.392069644360916 52.02736827400336 0 0 0
2760 56 1 0 37.02447307370628 30.770225626909056 50.36654747406423 0 0 0
1897 38 1 0 51.557091761437306 30.879403860601833 50.434117946940965 -1 0 0
1898 38 1 0 51.08230847324553 30.77911219241632 51.45921415852947 -1 0 0
4270 86 1 0 2.553641616076965 32.403367654414694 51.97540649854717 0 0 0
4269 86 1 0 3.4918404863046675 32.41488211438823 51.25190738609012 0 0 0
1905 39 1 0 14.423501709129651 34.330805937276715 50.28558223909566 0 0 0
2503 51 1 0 23.61988650035661 32.546591196678136 51.20940637484346 0 0 0
2502 51 1 0 23.42459268473571 33.581241271185284 51.77339243539671 0 0 0
1912 39 1 0 6.969536765582398 35.933821556074555 49.96355049409583 0 0 0
1911 39 1 0 8.006792628551512 35.814298703512975 50.47081728990168 0 0 0
1910 39 1 0 9.067803033086703 35.58756831495856 50.785417230909225 0 0 0
1909 39 1 0 10.210341651930491 35.405760071400216 50.794499280663935 0 0 0
1907 39 1 0 12.401664292486794 34.86470884446655 50.95773078969956 0 0 0
1908 39 1 0 11.295875656152504 35.062769470941674 50.959388018418295 0 0 0
1906 39 1 0 13.427740899052779 34.74700402889281 50.85197855553557 0 0 0
1525 31 1 0 27.607874397059533 35.40602733463592 49.94876485166788 0 0 0
1524 31 1 0 27.814630476208162 35.96809020714681 50.87400107006263 0 0 0
1523 31 1 0 27.922920964282646 36.6778740398689 51.73146273065697 0 0 0
2965 60 1 0 -6.563184028897579 37.85560366441922 51.772324842638845 1 0 -1
2966 60 1 0 -6.414098875495258 38.780192927689306 51.08204695118829 1 0 -1
2967 60 1 0 -6.178133524407253 39.93042620981485 50.965952730972276 1 0 -1
2968 60 1 0 -6.1757126703448035 41.030456776530215 50.61953786173273 1 0 -1
2969 60 1 0 -6.4211288297509315 42.19800673818157 50.444854147137306 1 0 -1
2970 60 1 0 -6.425860237862295 43.28318755389405 50.62417703576372 1 0 -1
1957 40 1 0 23.691549656785714 42.525302911938745 50.15125066607878 0 0 0
2858 58 1 0 31.667669064687136 42.17430478709999 50.271885350887786 0 0 0
2857 58 1 0 32.419968037672746 41.81040428028149 51.08562297234756 0 0 0
2856 58 1 0 33.307271474941075 41.63155650022242 51.84485068817879 0 0 0
2971 60 1 0 -6.790388907936801 44.218839744592856 50.83709443871637 1 0 -1
3400 68 1 0 10.503494087005958 43.35433674737194 51.26758741799368 0 0 -1
3398 68 1 0 12.496151006793365 44.0208928399517 51.48042953616153 0 0 -1
3399 68 1 0 11.450537121573666 43.6488808385897 51.428880513039964 0 0 -1
3396 68 1 0 14.708862133860002 44.192859491407894 51.65927590300325 0 0 -1
3397 68 1 0 13.663682174952338 44.214215999426656 51.44847824259144 0 0 -1
1959 40 1 0 24.323180817675823 44.60952880641473 50.618418149977735 0 0 0
1958 40 1 0 24.1679043563248 43.45198886742312 50.31277507928268 0 0 0
2972 60 1 0 51.8640415309135 45.23924092743996 50.61214191263949 0 0 -1
1960 40 1 0 24.12304002538149 45.755765556250545 50.80501103027802 0 0 0
1961 40 1 0 23.860786401895645 46.84589917410223 50.830911291613226 0 0 0
2976 60 1 0 48.43118126837 47.375697818503724 51.89399650908726 0 0 -1
2975 60 1 0 49.30910064134155 47.008437324782584 51.183477099949386 0 0 -1
2974 60 1 0 50.375348596354755 46.59130308916585 50.87037169363255 0 0 -1
2973 60 1 0 51.12756569557438 46.01318660504151 50.41256985642513 0 0 -1
1963 40 1 0 23.26807757431107 49.03741385445794 50.26001444283094 0 0 0
1962 40 1 0 23.66351959174335 47.94415556032005 50.55392972624534 0 0 0
1508 31 1 0 33.12131916852563 49.719740873152055 51.85512915263803 0 0 0
3449 69 1 0 2.401608972154837 50.34744857668403 51.68391267799572 0 0 -1
3450 69 1 0 2.790011622987552 50.31824724069313 50.64499118365122 0 0 -1
2384 48 1 0 14.630748084376133 50.41343175460509 51.80757496625609 0 -1 0
2386 48 1 0 13.646128118699906 51.6482786411228 50.1945486558343 0 -1 0
2385 48 1 0 14.175817480741692 50.97639726309473 50.954650659787276 0 -1 0
1964 40 1 0 22.868553108150607 50.03067287541686 50.138024751100915 0 0 0
2370 48 1 0 28.272932357285566 51.598333100088595 51.785320041312815 0 -1 0
2369 48 1 0 28.50658231409137 51.94204212229131 50.74449492375071 0 -1 0
1507 31 1 0 33.49626679492622 50.617973402090584 51.43625560082231 0 0 0
1506 31 1 0 33.72903063065861 51.66123150873487 50.99672327146603 0 0 0

Velocities

952 -0.988542955291184 -0.6267748632491209 -0.7789758700513006
951 0.8389034036105362 -0.7527659653505973 1.0051263959945582
1037 -0.5450036774798417 -0.10426837520479001 0.472434153569821
1038 -0.8638542636836509 -0.1495834563437803 -0.8756718981701453
186 -0.4236827516429136 0.4139960275647552 0.25971391131745714
187 -0.43945529431134805 0.14382729644997644 0.9675824248434456
188 -0.5679792386517688 1.4573008035619543 -0.3078235918174673
1059 0.06729341160199406 1.5459459149377277 -0.2818852169468097
1057 2.1665612187294534 0.14580234286065785 -0.848966919133538
1058 1.7924677532551683 0.2130142128701076 -1.922441121531018
1056 -0.24681592361364288 -0.6203520341170786 -0.573421383451577
957 -0.35391735486285636 -1.3818874325276802 0.44748137305997004
958 0.22057082904468397 -1.9367947694412984 0.12134611012699537
959 0.8648682496231249 -1.3917283111576597 -0.3291477003181591
181 -1.5162092698404575 -0.11569406230699247 -1.9859337237484156
4250 0.5009477147865298 -0.5757575625721794 0.014095074580898898
960 0.7250248508773135 0.4688232579275891 0.739048723928776
961 0.9342892619143257 0.04102405763192493 -0.7098529862733712
180 -0.5342335833411005 -0.5910154903268926 -0.05218721153229791
2288 0.7291353864990338 0.11492552572268444 0.5401681985348503
2289 1.3945296031432532 1.1662755408315242 -1.3980488562517792
2287 -0.04712749443623085 -1.2078787228857413 -0.1983173370719618
962 -0.316450294266781 -0.6039179322436403 0.49941989962574684
963 -0.8073463705731505 -1.282487318391592 -0.0048991717649687905
3801 2.0667761339243556 0.5718651741485465 0.7232938865342083
3802 -0.9181302220825827 1.0894359129128917 -0.6010571207732951
2061 1.0818494959648097 -0.5693495854270557 -1.198757495493722
2062 0.5154555196224747 2.13771315259019 -0.6596765795424062
2063 0.20333675970351067 0.9445603251936854 0.5353004119916647
645 0.8123402294294513 -1.2558503210870262 -0.37474559131614393
646 -1.3342394504032629 -0.0680628525429104 1.041465781836769
964 -0.5391852566531135 0.9771144998298396 0.7805951049350398
965 -2.4013940851272593 -0.27820716703688836 -0.5796998367929604
160 -0.9518363545705185 2.0932830621790353 0.0012621817987727851
159 -0.09620336453795586 0.9847800430653861 0.399215275550477
2064 1.3104880745276 -1.145570191406823 0.28413546689893104
1072 0.6742839199719091 0.8955585687786256 -0.09722494153576783
1071 0.9331268435490269 0.8699417552362989 0.341592888342705
2050 -0.24817909548164388 -0.3619674624414646 0.7822482583319613
2049 2.893188933287348 0.9108325089336305 -1.345194811297998
1073 -0.5449255079378205 1.3161719169016062 -0.17784516435621722
1074 -1.5614182045678608 -0.7203082385789761 0.03725489871421153
1075 -0.2397377747234266 -0.6944865864627623 0.5040063457819294
1076 -0.1653385227079037 0.11332747209856053 -0.28650627195503847
4498 -0.704836420995217 -0.6478069837766388 -1.8627133329957282
4497 -0.9541331315328938 -0.8136686289056331 -0.35801711488202104
4499 -0.9622116828309402 -0.8986266107296746 1.0597812197149037
4510 -0.315883487875121 1.45895558009016 -0.08491524872339498
4508 -0.5525901932987897 0.5105642630665583 -0.5855537578323714
4509 -1.7222422010964935 -0.5328055960397915 -0.481230474698938
988 -1.1882753985062726 0.40258699587838237 0.6629365028430483
2775 0.007331760111157493 1.6246638014426826 -1.152335138563705
2776 0.4229027907945831 -2.6376884369039466 -0.6941862266624358
2777 0.7931059952391017 -0.10666996678817409 -1.078724905978972
2778 0.5509966488525893 0.8733855286450734 -0.32212841329302017
2779 1.5116514097968388 0.03877445887127931 1.5433310951673975
2781 -0.43501767818805737 -0.21958634822578654 1.130302478718014
2780 1.4381112309534956 -1.0202573807742246 0.5252644673777624
2782 0.5941678846528613 1.9550404972539026 -0.4005410626246725
4511 0.9465203301634799 -0.10190343744867503 0.7992996678518719
985 0.5445665387485542 -0.5795425360672449 -0.4068579790912099
984 0.259706096320301 -0.2555089381533445 -1.3569473250510016
987 0.13562311343379901 -2.599977596603832 1.265716444285323
986 -0.969575242466231 -0.9903956282048431 0.6133787142092858
2773 -0.212137130717166 -0.9306469589829331 -0.9506982416680192
2774 -1.5959949870410512 0.05400134194226339 0.26305190726694794
678 -0.4740759535574041 -0.1801836405819201 1.0738439563628779
2493 -0.2963481825333413 -0.37446804256390737 -0.9455787786405591
702 1.6766447687457826 -0.08498665308550903 0.3553109503579709
703 0.45318833639303846 -0.4086517482105778 -0.7786494108313348
686 -0.5919064164700915 0.44190684190064655 0.02387282834772876
684 0.37146528882019403 -1.9193784828707947 1.3377185325559446
685 -0.7169294743898977 0.020983893751186256 -1.4383865105139424
683 0.0182526270103502 0.02091030848526259 1.0002940447056166
682 -0.0779183512987511 -1.2952475088045527 -0.7121750892083922
681 -1.191547000464773 1.0118946202912729 -0.023015718217964304
680 0.4170207508762946 0.4800612129014802 1.7960174151327406
679 0.2821047631262262 -1.8262490807280232 -0.16807464862687416
4287 0.180759435070177 -1.9793904800051785 0.6096415528240049
4286 0.417482120338028 1.7264874284267844 0.395334758079413
753 -0.1870545564013445 0.6456207668210835 0.3376435801584858
754 -0.7222686548228764 0.4737940229265181 0.9179281507042892
755 0.01709751703014789 -0.35405579460542413 1.0577407678308732
2495 0.7928466728169679 -0.4522223760085755 -0.8049546566396186
2494 -0.3130687131886206 1.7166767813348478 -1.2142453024112712
4285 -0.06481441320864881 2.260926246247062 2.429701734910424
2496 0.16702112264360824 0.38608980787628605 -1.3798476732608698
2497 -0.27877372345884976 -0.04324035728642796 0.37410138802488974
3588 -1.6335023978928194 -0.16065936136415693 -0.888944800880659
3589 -1.0509905082705098 -1.7081795550035948 -0.926863287913443
2498 0.9663691762746228 -0.6942042096174154 -1.3146093906351783
2499 -1.152568343188505 0.7821575913738039 0.21194148417898362
2500 -0.3090552997261093 0.4718570335168565 0.8930554973799034
4937 -0.8225451623779652 -1.4008469428329582 -2.558103664668296
4274 -1.2757816705855942 -0.6364567940261295 -0.8234478540402252
4275 0.1766590834537235 -1.1406438085042052 -0.87712461415151
4273 0.5616804132223756 0.7824050832565358 -0.6805556261272993
4272 0.6922488531419075 -1.5014841119397788 0.7161585681643702
4002 1.2376070865736686 -1.269302311018179 0.047581248093169326
4001 -0.49315629624371093 0.043950819347539485 1.0552717749754617
4935 -1.5579866012691952 -0.24581040902487533 0.10069894916043393
4936 -0.9111866005296883 0.6065903220245814 0.09862051363126484
1900 0.05350246380998924 -1.080610702860172 -1.7538044138707278
1899 -0.4441399991535079 -0.022582583346713855 0.6947182574847326
4271 0.8351166685157265 -1.7039491343737656 2.021778968474673
2546 -0.9312777817448676 -0.242066883462285 0.6407510624352897
2547 0.841594007809887 -1.1553978240253555 -0.01981179111535512
2548 -0.6552313013945402 0.1333954342010358 0.8727931293960168
2501 0.3699928759885078 -0.27075552935419894 -1.0644869675571467
2963 0.8402835504975286 1.4411138185850787 0.36154144113625253
2962 -1.492184023085288 1.618792802593585 -1.586171247179574
1521 0.7846772022965178 -0.7716408845737442 0.9646842178935298
1520 0.24427695268030952 0.25389191201834593 -0.9697425716445469
1522 0.16421595872649894 -1.1746373430942612 0.3159493348878043
2964 -0.47352270773427785 -1.026790452733499 1.4540476066652748
3483 -0.9432648121470925 0.5321260570905895 0.3751714154988952
3484 0.4160844274240611 0.09734037617625813 -0.1827339011855713
1519 -0.5829948712335901 0.6264664029766531 -0.884864197882577
2853 0.5121245473914869 -1.7267801965088854 -0.8793703228136118
2852 -0.5605078247200064 0.05363949148124719 -0.36542111355914236
3486 -0.07366737978079058 1.5316115474000236 -0.05804553852532082
3485 0.051057262923588365 1.4123982516105615 -1.5397940156756624
2855 -1.3815572666881952 0.32953264715117325 1.4808802367599818
2854 0.45129060318857994 -1.1195054278659078 1.4407009218270028
3487 -0.07411054748581643 -0.5258579795623495 -0.6999614590862427
3488 0.15793699210406642 0.3356534061844918 -0.6783420469739165
3395 -0.3300725550227697 -2.8369560931933684 -0.8740269605874578
3394 0.5336003916489052 1.0137562184097386 -0.039864603961600145
3393 0.6181164027377105 -0.3842718516134791 1.586399116404954
3392 -0.006930181954680953 0.8465692404348666 0.2502993101025836
3391 0.5139178924768751 1.540067141616649 -0.4234859743048184
3489 0.6592789748470196 0.29390841013270563 1.2808203438838937
1511 0.8772394905641361 1.237754414512322 0.06262773273054022
1512 -0.7137185460310417 -0.5989181283449904 -0.6145545604736428
2381 0.573929236332556 -1.6151324030119363 0.5223775341909005
2380 1.3851868863954533 0.9574921374042716 -1.4442803415573775
1510 0.10655673467581019 0.10228273484252978 -1.7547332308877184
1509 1.161111703293688 -1.1585321989419148 0.14402026644512259
2981 -0.61539099061715 -0.05041448538713805 0.23110154352271556
2980 0.8993077434683218 1.1604221852145373 -0.5601121629681889
2979 -1.0397662823093343 0.9198784630038799 1.0584327271481997
2977 1.2630359105847861 -0.019608417073406936 0.3957003481222201
2978 -0.3673299223416491 0.1404860308715788 1.509091111333902
3447 -1.1446161144744933 -1.6666760661243447 -1.2289302690449029
3448 0.4711014386608474 -1.473600431968484 1.2732077853069623
2382 -1.1325806994049366 0.46832031746242525 0.5181917798010046
2383 1.0427644952450195 0.40595726643993457 -0.874418950297182
2374 -0.3721100067804246 1.7660103765757034 0.5217259536215961
2373 1.9656542232929246 -0.9531590369585032 -0.3064791046154295
2372 -0.3208146124525502 1.219110913395095 0.6355371500517308
2371 -0.5122513762979077 -0.17139855554552635 -0.46423049316256676
3498 1.1874390925404468 -0.3125794355413783 0.6778277636023788
3497 -1.400223000957744 0.2595000141367148 -0.5916341330853554
3499 1.2153932172403545 -0.659293284388361 -0.4174398983815057
3500 -1.4588044994752871 0.47046013478259807 -0.1549012806423448
1035 -1.4778299122818572 1.7879857651329383 0.5948141769446983
953 0.5871890356719879 0.8701128760001138 -0.29284737003366623
1036 1.01886042709787 -0.8075422627615558 -0.9287592334025212
1202 -0.5734804417553455 0.1450119313982083 0.6461240767638825
1201 3.3672284463599085 0.2890026571713299 -0.2868768425983389
954 0.4265118072690148 -0.2982634683149308 -0.08005223228877067
955 0.9281512345482643 -0.3655600197992084 -0.7530307613105507
189 0.6197827630906331 -0.275464584396375 -0.07397019057862456
190 -1.5573288021311604 0.5337951465135187 -0.6108239895272913
956 -0.18403088713902022 0.8590300753696496 -1.8022618246631614
1055 -0.3635881140839771 1.218883253233642 -1.2612369941669324
1054 -1.2039825334866587 -2.2798866933268003 1.5908404598720263
1053 1.2451495325008968 -1.0783833595256902 1.1084340942567743
4488 -0.4379400141547161 0.0181276828513445 -0.8091745887165493
2058 2.3510833180858515 -1.416526299178002 -0.7268821522497833
4489 -0.0970191560652566 -1.9584847971438175 0.03464427699280408
3804 0.9620983751410686 0.10679843466424845 -0.5063976880486214
2060 -0.31697847946489216 -2.503270876802187 -0.7930026305304977
2059 -0.40380061589474814 -1.3979255145335343 -1.177750270049419
179 0.6023165842931388 0.767808678528282 -0.2497373787870215
177 -0.15306498920713127 1.792822140888128 0.927561725176255
178 0.24075858713909631 0.8921660251359534 0.6818967565275931
2290 -0.6599708790634831 1.0832653180723868 -0.9940951540468619
4491 -0.36154977340467354 -1.3083809996033455 -0.9050435529449063
4492 0.7728517431028041 0.7058478814935378 -2.051324514063122
3803 1.7065660660399502 -1.3271799368351518 0.41511362495787824
949 -0.8698124697213729 -1.2135685916868388 0.594649245468809
3961 0.04031812405037907 1.9345050492251683 -1.4113883229485658
3960 0.3984062894791205 1.1225817120470878 -0.2133540303401693
3959 -0.031906504908078226 -0.4586010201573728 -0.18032574552893121
2291 -0.9958270109368004 0.7281102081056285 -0.23258696441455617
2292 0.6774536280722251 1.8911877540602124 2.152924310275535
642 0.9930454210691181 -0.4963325225262676 0.5192882122627627
643 0.9330474719611612 -0.8250768447831791 -1.055717854388672
644 -0.46185728820754407 1.187500573630392 1.4511206453785626
4494 -0.8634575486807858 1.0466737977656213 0.25316426414683574
4493 -2.0604338942791403 0.5914381308895168 -0.19843256690991457
950 -0.9090512605484928 -1.3884400730860575 -1.3716787023218606
161 0.00994105450531085 0.1947876857684801 -1.3694528795581755
162 -0.05942972346215869 0.025142419760240786 -1.2593487742611216
3965 0.2428270675271451 2.5095774364899546 0.21368306047963576
3963 -1.3577003612997405 -0.16086872292278964 0.5536652883839392
3964 0.06602493020744821 0.12250613964519876 -1.6676906457502523
3962 0.8832782676752677 1.7309558458645395 -0.23759173909016434
4496 -0.09454305721722715 0.9394367635430515 -1.69409257257016
4495 -0.011337957591550034 0.5267489378776131 -0.3164147096084691
1077 -1.2264196281437012 0.58451653388513 0.7736035405360586
1078 0.2458292973304168 2.661122121069621 0.92915057701785
1079 0.8894040335203692 -0.4406296747597272 -1.7081002220126953
4500 0.5466108648780692 -0.6782860769814447 -1.1869877373602722
989 0.3514284076879028 0.5874897777102823 0.8414459102946044
990 -0.08979461677352851 -0.6504627222101299 -1.2414667895218774
991 -0.13014645616379977 2.319243584895524 -0.259142659700766
992 0.020273886611317224 -1.675997702488314 0.73720120934793
993 2.09842346731472 -0.09236333638020344 0.9300084540113197
4514 -0.9954719511724874 0.5727016548339685 0.5317327920529438
4513 1.17209023374224 -1.078793941310074 1.482674842976719
4512 1.3931557309262048 -0.4767401482545941 -0.615590029596951
677 -0.08547824296509855 0.8851294771943814 1.097804098975273
676 -1.5996400363852847 -0.9498403412048404 0.017080657666310117
704 -0.8181441666176112 -1.5508289769571841 -0.39858867509407947
705 -1.1503146145236731 -1.2444189980766915 0.6611228376856527
687 1.3677336746719224 0.9710460520208994 0.4179044676293831
756 1.2675501478574553 0.6970745789125595 0.8809793320446517
757 -0.5332524853529725 0.516099404916842 0.3250741948683296
758 -0.5619175319253801 0.34557680319573086 -0.7846166607922407
690 0.023779784635984347 -0.27844734172089064 0.18674144773029772
691 0.7204936239421433 -0.6518396186256652 -0.6347511076678076
688 1.3421487653546467 1.4020983195414565 1.2592842249034313
689 -0.9700041419322611 -2.568924569196838 -0.06254493493348491
4284 -0.1813073485363174 1.2038043679085266 0.17091613961442537
4282 -0.06317328167013461 0.1616613517885572 0.09683770719219245
3587 -0.008601780562300015 0.8251733030405712 -0.9220024138486619
3585 -1.3689470651611937 -0.284749270974397 1.091747293478059
3586 0.08175854976397212 -0.13818345442590316 -0.8936950213456951
759 -0.8501274332493842 0.06277466835842874 0.9670664277252343
740 -0.6240266473733783 0.1611623561390978 -0.7914975046360145
741 1.4006477646970348 -1.200660222917572 2.4129824985820267
5000 1.3680914881263602 -0.4831541108212441 1.2039748361099032
4999 1.7715643961134253 -0.6733156165606906 -0.02152923194343155
4998 -0.6107037625495354 -0.8640775631103437 -0.3138122859266971
4283 -1.2789843985571716 1.709479361471324 -0.18904938815889072
4281 0.09376581383189739 0.5731670607350521 -1.2010403881096918
4280 0.5208507257249188 0.23170393611133125 1.8296499362650298
742 0.14321135418189385 0.19467781688459174 0.43392056974728427
744 -0.5949873336707361 -1.0283601238438842 0.6062669832187843
743 0.12945085830343672 -0.18278857311456015 -0.9787298418696169
4279 0.03923340954999849 0.8647709139516725 -1.688193321186659
4278 -1.147101866494451 0.7975627413909712 -0.0425264673544009
4277 -1.25368673768045 -0.18165408947900916 0.14583543420611156
4276 1.388438409354155 -0.5177310115843556 -0.05638850960753514
745 0.6331704162074308 0.3780977799263329 0.2857488650315634
746 1.7769071056367554 0.5495918182473153 -0.6970615760107225
4003 1.9821257376432158 -0.6720184343157739 0.4768760497332548
4004 -1.4144767126338462 -1.375545827419824 -0.8954949031367729
747 -0.26355621736725326 -0.3753248993064446 1.8963168240321657
748 -0.7901210049364886 0.06879749670710045 1.5558288086495178
4007 -0.9158417948663896 -0.3913110510662285 0.7359593068555705
4005 1.4094100703679069 0.7190108636178402 1.9031669405557055
4006 -0.782421048654995 -0.8461526759699649 -0.21781295215680513
749 1.1188918946830904 1.347211582200959 -0.15053224847487906
750 -0.6310867997769833 2.299793339745404 0.6949529006448125
2549 1.5403213072236357 0.12096403803007671 0.05517142780407304
4934 1.3834647521113361 -0.4779509122168708 0.8941482315018676
4933 0.8300128132632747 1.111390116750896 1.3826275521816815
4932 0.8157970491803219 0.054860329638493244 1.4223727089255553
2960 1.7866801216277584 1.1853239349908264 -1.3665760752619835
3604 1.087336184493842 0.02363781669410242 0.9211721475197423
2550 -0.3259415054598366 -1.257010009628324 0.8107351418782941
4930 -0.5515651600148718 0.591428685985098 -3.2671039558151374
4931 1.6918080122838082 -0.8790234178480183 0.81791221912828
2961 1.6484085763269378 -2.631514446276611 -0.1533498189109788
3606 -0.4929095890088325 1.9890147494882182 1.2778547031652918
3605 0.6627427175244075 -0.3405379115007099 -0.9625598452466063
3482 0.08726282128532126 -0.37171798299390824 1.5631411845243346
3481 -0.7243744647747996 0.22934717745652916 -0.36303420466625813
3480 -0.9143493995273546 -0.12390682596022412 -0.5027022157687321
3607 -0.28115590981972927 0.011302769877474889 0.1389484627613514
3608 0.6405045722445888 -0.5078714822965409 1.291799059418333
1518 0.39999098576488873 1.1940390230296232 -0.9864613442560751
2851 -0.23504804636932983 -0.3285950955956708 -0.5852969828914052
3609 0.47307048845956035 -1.564599764610026 0.16970864738777264
3610 -1.416267279895282 -0.10055767865732018 -0.39871644120953476
1517 -0.6519180212642343 1.1972444425044158 -0.5660881322575979
1516 -1.2477751686122938 0.08802224819499396 0.6914942928955511
3250 1.7365031980199108 -2.911779086231159 -1.2609869606002928
3249 0.780674676227049 0.2953550293115454 -0.14013631095928106
3390 0.34976105118013956 -0.7837763704416474 -1.8469771777460573
3389 1.051137721435549 -0.27397874817268664 -0.44731243337900484
1515 -0.5742779538749301 1.0786477980019433 2.1510777521000373
1514 1.285581225094032 -0.36517316867636695 -0.002010270257725374
3490 0.5502259269344149 1.1556389956744044 0.7684947318553325
3388 -0.6357839851596123 -1.9012788971428665 -0.3866908732907777
3387 1.6776321726416823 -1.7925827780841432 -1.072207580438371
3386 -0.008259318743176147 -0.38903985580149497 0.3466608106888786
1513 0.15705844210641023 -1.1040292995698149 -1.3073848203163174
3445 0.7709232734152865 0.07442220687227302 0.18963509265957232
3446 -0.5064821130865113 -1.8504891051323225 -0.49465375361272335
3491 1.4540847489064643 1.7351343401638277 2.184736857291672
3492 0.8929642522498497 -0.500105609902744 0.09079298725421187
3493 -1.8172322798017588 -1.3619709756984502 -0.42392166746516197
2379 1.1680283534857387 -0.6471791390813749 0.4907986383748566
2378 0.1136820934498207 0.5093975858318726 0.9823418190947822
2982 -0.031467717893628205 -0.4417165304648732 0.1452342803036012
3494 0.7324274337396156 0.8676018950972275 1.788095946146187
3495 0.9553538392322813 -0.8812670554783041 -0.340997063482136
3496 0.49271342910755267 1.0323707148059436 -0.035768287239435405
2377 0.0879328937459189 -0.7590361449082115 0.07824871370529543
2376 -2.2805290587396416 -0.8678884712837778 1.279548539596534
2375 -1.12817103559463 0.11408071231659211 -0.39454496295929986
2984 0.4730303251414073 0.6449363990296242 -0.03762208923806945
2985 -1.1362065191934627 -0.8226426359205403 -1.2935153762926541
2983 -0.37856757226052107 -1.9286023180483023 -0.5590146620386518
1033 -0.3866624489027595 -0.706434074253769 0.8531684746252711
1034 -0.9328866361282313 -0.1384513527203156 1.630552372776306
1203 -0.5230416466106079 -0.4077959766793295 -1.1583225268794548
1204 2.203474004650876 -1.107233641987456 -0.7492919044495098
191 0.24796859964762552 -0.17512625424450387 1.9317604266453072
192 0.35231651800872976 0.26678218798001635 0.739363176460508
4486 -0.31217326743019186 1.4911459235511997 -1.7893831092271726
4485 -1.8073902556111017 -0.6111297827218165 -1.1374245328045247
4484 0.667759734936257 1.0929186142750833 1.3036007274065229
4483 0.9357571997855307 -0.718942311552885 -0.710713920494612
1052 -0.41508811555649555 -0.873578591706523 -0.10738470719584275
4487 -0.7974845254271163 1.0613049193449027 0.29256256644000456
944 -0.22599209180941285 0.1784082736086157 -0.9822465694022361
2057 0.3467460282185083 1.0221687409605482 1.0792963625539855
2056 -1.6665938887393477 -0.6073051885288194 -0.18986297418928907
2055 0.8317007026072178 -0.7011108192950867 -0.054638473012481065
201 1.3644084345853387 -1.3623433028529155 2.598821871648116
1051 0.32156837502299107 -0.40975952688089645 -0.08528959082946327
4490 0.5324184044863587 -2.1063061828026974 -0.3168476080105943
3806 0.702272468507013 -1.9463105741868079 0.7796413803121272
3805 -0.46159496406312606 1.2367405123269983 1.9522759195043156
945 0.17129643652262758 0.22461420598543075 0.44596572939396195
946 0.34915224078041485 0.17254153064477645 0.5230257742973098
176 -0.3517573326228498 -0.9866602090722723 -0.08397641930867603
175 0.26708264602286075 0.591174772416373 -0.5640053764940037
640 0.14416542032259327 -0.07666792641465628 0.21932220967147484
641 0.5173756216631477 -0.8073656880178629 -1.4143583455597086
947 0.24799516271017585 -0.5962129388029093 -1.9665903764336266
948 0.07063181341164604 0.4614964812191556 1.1821661024322911
174 -2.2544673958051087 -0.2451471700087727 -0.21772248552398513
3958 0.7872442489111151 1.3066593279339949 0.3889305201206966
3957 -1.238077315406175 -0.6897607468800468 1.9455385684162212
3956 1.4687420273017373 -0.8642877713308331 -0.5094298181566155
3955 0.11548340130707374 0.10696952007462082 2.659586621483014
3954 0.38824452468025006 2.06863055354709 0.6603421456124428
163 -0.06159704377286518 -0.4512789711528844 -0.39572085536304
164 1.8288976215390986 0.45377605054888687 0.5396334711692463
3953 -0.191857653190672 1.2177249351781787 -1.6493126517406629
3952 1.0991255032412257 0.24775045354036362 0.5751520005181008
3951 -0.10276103383853462 0.6895795420030137 0.6023988328928616
2293 -0.4460673890534486 -1.0429868545711138 0.42363281979112877
2294 -0.361196776157349 -1.417432919831902 0.34454119707921516
149 0.7493912302979487 -1.897672744442765 -0.5761556857529018
148 0.10960758594937385 0.16631293486539897 1.9403108388979489
147 -0.9282822788733807 0.05154783761710799 1.5764446923093476
3969 -0.22215776082875138 -0.5909911695212098 -2.3171198388012066
3968 -2.0369454176948985 -0.5419520514900897 0.3969155772882686
3966 0.19895904642044404 -0.10231924431157641 -0.8120707730402539
3967 -0.9513355914181787 1.1713712898185007 0.5547549809122744
150 0.040003239516528954 -0.5285320771947154 0.40981005178048147
3974 -1.0554226433005482 -0.3743837196351888 -0.8185281292402884
3972 -0.8592293861083944 0.3975478321840743 0.03050485026447952
3973 -0.5229712598455596 0.03540920193421218 2.4264436337816195
3970 2.4772067884373015 3.7812099083544295 1.316763986663064
3971 -0.8459197563831434 1.4705758093687855 0.36672485287765627
1080 0.12417851946731936 0.18735220033593306 -0.18054728798169706
1081 -0.28283367354843697 0.6776920146302641 -0.05953516806860831
1082 -0.13047482711822364 2.553807315003986 0.1923905294328697
671 -0.9683588056527122 1.1730264472553102 -0.3855511268986985
672 -0.47324264856236553 -1.1752788997130315 -0.08244346149910026
994 1.3112718912369363 -0.08913655322577577 -0.24844526658084243
995 0.9372057721275112 -0.1654246459159911 -1.4174718067453196
700 -0.7246695135939897 -1.561805914209041 -1.4851782842398134
699 -1.520250307743708 0.725776777891811 0.19501002702218984
674 -1.7058259471019581 -0.6596354023526656 1.2138390638797685
673 -1.6213363029437595 -0.714972113945088 -0.49255734313042887
996 1.2511823827627004 -0.06969333593732725 -0.7127839716062048
997 -1.0601790451376067 0.40517794872531804 1.445611888734794
698 -0.05454731582457163 0.5363418447506098 -0.9031504768952661
697 -1.676061597368578 0.5803335273043875 1.2089097793462464
4961 -0.8852222812195085 1.1742901943574044 -1.417691076214182
4962 0.8825561771364042 -1.5306142004267413 1.9319281219643585
4963 0.4017729982232721 -0.6571428046167026 0.19704685737641314
4964 1.5107961468559612 -0.388316071826111 0.6976250529041407
4965 1.0177908663143904 0.2269775260967725 0.5533794156067621
675 -0.03717230546531208 -1.5788816095196168 -0.8987022762239297
4515 -1.0723822190789158 -0.9076825367280104 -0.7521999791745686
4516 -0.11327367445182353 1.4204939586299135 0.034804615295747895
4517 -0.56366852193583 0.6486758702024269 0.6656909029053772
696 -0.8676409785319187 -0.1476752559266095 -0.4360434066447115
695 0.3991727591358645 0.9455094598198912 -1.8374377779450803
694 1.1979743575643902 0.4175059671195416 -0.7055185526127035
693 -0.7450563875328408 -0.10142160436783475 1.0365527370673888
737 -1.2885541355907975 -0.5057020369407569 0.22518664649393927
738 0.5607826977341687 0.9320234790122812 -1.6172077183181284
706 0.7365659322374072 -1.2912811027896616 -0.33419949194621645
707 1.165019643255394 0.9724627183756104 -0.3228770122795294
692 -1.9045200157234314 -0.642522683225177 -0.9598408743759662
3583 0.9911417610707595 -1.9991427771195494 0.033661409944919965
3584 0.19314195289540603 -1.20929974018006 0.22342374702468973
3987 2.2309490466994704 -0.7393209660204156 -0.6142891193721126
3986 1.0452996206367893 -0.19555863133908197 -0.6824351376329922
760 -0.0600819564636251 0.6048224947275905 0.3162446524553335
761 0.4219774391285961 -1.515692572796377 2.069473738037722
762 0.02925012567225782 -1.0030693942989768 0.7797732409472891
739 -0.2868730224870323 -1.4196185473607694 -0.7174078989468731
3988 -0.7037957479837419 0.5168928872517633 -0.8748614067177919
3989 -0.6345541868262589 -1.9674809308268164 -0.8993345402678774
3990 1.6019142108875346 0.24054640683646936 0.019076073530477244
763 0.6527560584268801 -1.0343161705803587 -2.089479696500987
4997 1.2653005112201945 0.34582887066964557 -0.371380518892579
4996 -0.11784511519760116 -0.4185960488410194 0.47756588935972244
4995 0.2598259145319325 1.2631696423723484 0.7417961156706092
4994 1.3858964990595917 -1.831524352044528 -0.7013936691972801
4993 0.8962954898267952 -1.7229407550101905 0.13357719401764362
4992 -0.8940509295145624 0.05191999039129412 -1.5488597123063061
3215 1.7452998610491954 0.46370427707629325 -1.556366447898471
3214 1.2167035550780159 0.9034727024161857 0.5060959425797366
3216 -2.4043029576666117 0.3219836846354883 0.6733916719108747
3217 -0.5731465482144358 -1.3352029856569674 1.624074172885605
3218 0.17045223381897154 0.5767518715014799 -0.9455247008413481
3991 0.9592092209174383 0.1872953742351261 -1.421289107397758
3992 0.24066321565831547 -1.017632757465581 0.22098230737761823
3993 0.02220632152116564 1.2796332453743313 -0.2930735861236691
3525 0.16996547050894634 0.5680228734014597 -0.2615610922069518
3526 -0.4504478829142106 -0.5913465646677059 -1.0548557568331849
3211 1.5894750327394966 1.6256297212983029 0.614888684109537
3213 0.38664072917502557 -1.3141138027742358 -1.8301071317708275
3212 -0.38758833785359337 0.2022710787965248 -0.7836706307653373
3994 -1.106026387763806 -0.7328851069828981 1.2421889780650084
3995 -1.6638596306408688 1.821329962805191 0.006957033117236611
3996 -0.4676910108985536 -0.7859447429201132 -0.6603886717918557
3997 -0.41636792655058774 0.36345690177955303 -1.056764301698725
3998 0.46751288933475976 0.9042238157865443 0.7925472351836848
3999 -0.5052011505692164 -1.1496352572796418 0.175881025735665
3523 0.8400345470443529 0.09219224221882497 -0.8890878854053156
3524 -0.8688578851647558 -2.0994403435623057 -0.3888928544662503
3206 0.7472228043181198 -0.2989958902144213 -0.6202962713635884
3205 1.9803344031694257 -0.5301405023535061 0.06712140257752566
3208 0.2294608588025368 -2.0912748883282473 -0.8399937773341801
3207 -0.9712885917230012 1.5647344738133482 -1.062659624967872
3209 0.9389168709164001 0.020080698403355288 0.9012752724094224
3210 -1.2321931173611216 -0.6119395153063633 -0.44371101803865565
3601 1.132787918887523 -0.5286414815106747 0.8307773470160269
4008 0.6962983400985268 -0.11921269545039037 0.646578401301255
4009 -0.3034274900430044 -0.5305585603200687 0.04366247773560682
4000 1.492436555298644 0.4737490544499824 0.08579903542997204
3522 0.4410575974283425 -0.299708749042723 0.214458542847054
3521 1.4781441084790157 0.3322288946297124 0.006805106901509955
3204 -1.1006254663017154 0.8555765421682398 -0.4685721436562794
2958 0.27555591476194435 -1.267927770180951 0.1691815275366625
2957 -1.7589027058804723 0.8390143642976601 1.146174572180082
2959 -0.4609964683419677 -0.13034906551866154 -0.9702013470313877
3603 -0.4005290347377479 1.0190062230186285 1.9569485877588593
3602 -0.40197469198512603 0.5967628854216626 -1.0630948371855444
4010 1.8017291833499849 -0.10382785826822429 0.19153588447944292
3479 -1.9619373317078233 0.3429256162492631 -0.7383989486274654
3478 -0.19187144257122168 -0.18953020254407496 0.2638514171883916
3477 0.4597050807543524 0.023472935653398252 0.6908063162582126
3520 2.3250396869628798 1.4566185708010748 -0.1877870729994181
3519 2.0189560425619235 0.4738752373565853 -0.8092241008103365
4929 -0.21704607063400078 -0.2762628037282715 1.6220983397931488
3518 0.10925729122967567 0.24803561148893483 -1.7587810764255203
3517 -0.8446611023697164 -1.6352141601292267 -0.16635945728187604
4926 0.14147634078023935 -1.331755659050733 1.543128907009421
4925 -0.12344111735888652 1.462865172960583 0.517782908581728
4928 2.3404635819943627 0.09029236403627147 -0.5068572868282534
4927 0.382566405948955 -0.10299221676955625 -1.1493145738288195
3516 0.24755810353181312 -0.663765341069489 -0.10154286862142176
3515 -0.9481282651051395 0.12078266815782657 0.033457620669650995
4921 -1.6774952039260191 1.074287894519498 1.0557671539021736
4922 -1.008252586883117 -0.3968924450471818 -0.842037708224326
4923 0.06108968967620684 0.15133882440142749 -0.9283360820380994
4924 0.3610465973562434 1.7086458299013982 -0.6913258582280774
3246 1.111495808828883 0.4492214557485854 1.2805253692776701
3514 -0.11090948816334514 -1.1710665621356744 0.40353523449283146
3513 -0.5323595367856908 -0.9636393249293705 -0.45742685534049765
3247 0.38334770206835905 -0.5658608098967491 0.16408923643573298
3248 -0.5409778569209029 -1.6912934247474143 2.1259032210724427
3611 -0.581917116322835 -2.438133732104352 0.6943574891504769
3612 -1.9128728738322198 0.7204316152592969 -0.6972329242829876
3442 -0.7265436349634501 0.41681795824103207 0.38407489784999227
3443 0.9216107431064192 0.6865174492750958 0.25361548410589485
3401 0.45212738182441337 0.02666741410352086 -0.21449676647595056
3402 -0.47402610527829364 0.42277242226200484 -0.20531161575482507
3385 1.4522044361092368 0.062116522432475924 0.665212287956741
3384 -0.3713629732895099 -0.2808591428011292 1.2344912661748724
3444 0.14931461451759231 0.9468448711508741 -0.440165517247905
3383 2.152577069923977 -0.6774200100650505 0.987273304470563
3382 -0.2611012563195736 0.07677890537089319 -1.6159868440008391
3381 1.2617270257688833 -1.6364404777081594 -1.7925546318777625
2987 0.48656712715623657 -1.6625222663257158 0.5961925801371627
2986 1.8155461011005312 1.456473148431794 0.38592836769360495
3451 1.5399039729853745 -0.66348991813286 0.22091950746632816
3452 -1.3075350432113853 0.2685951872939502 -0.09909730826046526
3453 -0.7422461355766589 -0.3412414034401004 -1.0409999426999774
3503 -0.4671778121144186 -1.4123784106830568 -0.5837030008856552
3504 0.16994459229259046 1.7407311308696403 -1.1075085996679261
3378 -0.6793603519502436 -1.5140147960658616 1.4991169075314115
1030 -0.9019455306002773 0.04169702106035861 1.4502632134327342
1032 1.0135180654247353 1.5580825589773752 1.064106514316414
1031 0.2132733454945756 0.7110927435183648 -1.7662280259601246
2989 -0.7504762699177693 0.4104965947694209 -1.4688129949468824
2990 0.511863833512511 0.3510684213722522 0.326136910659784
2988 -1.05956876064803 1.267342331838397 -0.6117226689195097
1205 -1.215422695911826 -0.983536882920955 1.6887816853269904
1206 0.6178053285392294 0.4678940106250692 0.06545010884354943
4481 1.0603548898805932 -2.2941973518640877 0.1485755807008187
4482 1.265165550274192 -0.553657967686742 -1.9928658569213664
4480 -1.8172881344338592 -1.5139916501730384 -0.6156589382840557
4479 -0.5799358157487005 1.279416487191457 1.3470262232799095
937 2.6370819719760026 1.2209600347240537 -0.3053147171112414
3502 -0.9261673952746654 -0.5913570321973955 -0.15726681506254037
3501 1.2113553198519724 -1.0863716263006158 -1.4549052551746726
4478 0.22213929151870393 -0.8311569181658538 2.0585389334799227
4477 1.2106656084181586 -0.6335875532909849 -2.6771080615014835
940 -0.2707179018398352 -0.07485621980378299 1.1977734507851239
939 0.041747390135725926 -1.4159263918944793 -0.3189016856780689
938 -0.6689270112366058 0.05636671063339063 0.9876954313035854
194 0.9705345771923493 0.8769155273544512 -0.8034853772739264
193 -0.9387526253814407 0.766817396275686 -1.506583678785248
942 0.7371555759927552 -1.3306873495640041 0.34504475210506125
941 -0.076404236252059 -0.41184795743190633 1.807263766254397
2054 -0.21205316986074782 0.9890367499384162 -1.8760978549259728
2053 0.7111850547031685 -0.21206597775900277 -0.005132374226353598
2052 -2.1970869437068887 1.0346142492491328 -0.8883858426604093
943 0.10008926344671637 -1.5693018870057898 -1.0025234941709347
202 -1.0266307978468352 -0.6079163901434375 -1.8090637173667738
203 0.3702818746578276 -1.025957593571117 -0.9844959108308382
204 -0.3306801608142596 0.28218666081169946 -0.6417077936822204
3808 1.4213102845135988 0.7409799588586174 0.8875785310621795
3807 -1.97031952645774 -1.3311969758329196 1.1573371193857398
638 0.15653781455923663 -0.1543435250341001 0.56722002011055
639 -1.9622458972638934 1.8598914167737584 0.44086468210342966
171 0.6609605681188191 -0.3663977591844896 -0.27393114713835276
173 -1.0271090739265971 1.0335997024551962 0.7693424596415862
172 -0.34150160929837614 -1.7047222588356872 -2.547584652372266
666 -1.1808229826092327 1.4378181346499257 0.5202542704520259
665 0.20566849955590086 0.2207323641733417 -0.05493664456597669
664 -1.6552148898010075 1.0968516238822192 -1.2716367271892262
145 0.6109030460930833 -0.6708868767207571 -0.5482886347551346
144 0.7091118087259832 1.6529076132002163 0.684512889875047
165 0.8356406381627317 -1.2390570379296788 0.13587204126748803
166 -0.07643352293990939 -0.05930927448573761 0.47919424071535066
167 0.6431851904903346 -1.0915062482503488 1.5407980524082296
2295 0.20315789170511267 0.04588669424285738 0.5422838486511323
2296 0.07810437541665777 -0.8569194235864093 -0.10163894213781699
2297 0.284088386800142 -0.5427713048365377 -0.5062165579957763
667 1.7376954937597986 -0.6066821428497096 -0.2385574022032358
668 1.503546419467555 1.0017179483565772 -0.9383494814294138
146 -1.1126274766362074 -0.28168164696154385 0.5843111188115838
669 -0.05800421310132045 1.4797777959693594 -0.973146164143259
670 -1.1474834999648356 1.3939769803253816 1.3678238249245303
3975 -0.45708921475987 -0.37606715292104953 1.0804135075150743
1003 -0.7447396068110841 -0.7024644530903363 -1.2701164769204476
1002 0.901275690417427 0.9014278375452424 0.38894365072282655
1083 0.9177192341686363 -0.48214956771087636 0.9151206769693145
1084 -0.4576552287823836 1.7487395848540812 2.0349052684437607
1085 -0.37246715986716444 0.20152754160819747 0.8467476134205822
3979 -0.2607184223960401 0.5098143208679276 1.1946516914813254
3976 0.19182588160131572 -1.4707909795948613 -1.6846395334006474
3977 1.2399011413909071 -0.9218570759309864 -0.31484347328634427
3978 0.40672128546223996 -0.3186687681004135 -0.3178541088886079
1001 -0.6015281240318889 0.3658327190388069 -0.2334850042687769
3981 -2.4071875320570855 -1.1894745525271992 -0.4821504216560399
3980 -0.045237953466877805 -1.1737264966072884 -1.3998142086708583
998 -1.2497926631058571 0.16311590249980387 0.37642177121528103
4957 0.03210758055673935 -0.2150057266482146 1.0569226733677495
4960 -1.4041835793504645 1.0792980956487985 0.6601167575695264
4958 1.0695038512912607 -1.2817711817417072 -0.3044206658342339
4959 0.5408235651352296 -2.135444833251168 1.2242423926978507
4966 -0.7100819866030487 0.7441328081848031 0.916328632925633
4967 -1.4799860976555088 1.536291953209452 0.7268922018518438
4968 -1.2356328002874122 -0.21127553362022058 0.14673468033700543
4969 0.4762998348962536 0.32927384155643363 0.2135019406867441
4970 -0.9036985377819216 -0.23836553414898456 1.185968734236195
4971 -1.8606375829992046 -0.9000455344413674 -1.2665429331725184
4972 0.23790792921185977 -0.9443235460189953 0.8681428320826643
4518 -0.3025063765801928 2.2026001731356417 -0.5149100772377306
3983 0.4213767802309707 -0.3923101299091115 0.07527453442968846
3982 2.1197940571765113 0.8634354406487584 0.38669816959337117
999 0.9568192178687502 -0.32926638552902143 -0.6644721724825519
1000 0.35029987005010027 -2.33857695474614 -0.4102000207683992
4519 0.6884221400620708 2.1334707469389236 0.19710187724681813
3984 0.715551416080542 -1.5384557311786957 0.00030883487540298016
3985 -0.6413644204333269 1.2090763047587998 -0.1913974862745739
735 0.04133603458374377 -0.2694883786431587 -0.31497268754333474
734 0.40613079885149855 -0.8838064882029444 -2.1516413715191627
736 -0.8857271841138139 -0.5382968927349308 1.2037110424915833
708 0.906224810680126 -1.9421921572429997 -0.40029941323281226
709 0.03305736517619669 1.4721818663222213 -0.7753119378069464
3582 2.3094626337759343 -1.8536233347750193 0.895023775015048
710 -1.34766130150488 -1.9756778220170728 -0.25419084558291694
3219 1.656481698152576 1.0922896374529123 -1.718053106603664
764 0.028681331877856875 0.10926701044611281 0.10118995623358439
765 -2.1356025556950917 -0.5249534850132127 0.7802315090925047
766 0.3348235958809074 2.039623514419759 -1.7451231368292548
3531 -0.7926125992371458 -0.0024620249530082072 -1.0126027465178085
3532 -1.8131705379886114 1.323596779003101 -0.15970240058861687
4991 -0.609644342750382 -1.5135757592600252 1.4453920700072567
4990 1.8345069481015222 -0.3883636508727837 -1.5652337645059162
4989 -0.8412790414289129 -0.9999237650027777 1.4582438993781348
3220 0.2895037313140939 0.5980146863242181 -0.21492803322617549
3221 -0.45862179017571947 0.11574526192232953 0.24289714431815562
3222 2.341410366435791 -1.000384151826118 0.9241634369480047
3527 0.3795736172718232 0.2608895767649011 1.4386390386322945
3528 -0.49990798942870707 -0.21337119379098315 1.2413331181784129
3529 -1.4439968106911443 -1.0780847195917083 -0.39183279398699133
3530 1.2264247617818258 1.4805000323778557 1.5190183611792147
3533 -1.6035133427400095 0.3327523557100113 0.07852247169407098
3534 0.19901275435643656 0.25960839629556687 -0.4749895652819254
3535 -1.2492644130101396 -0.760914071418096 -0.62341734640511
4401 0.32851452718442714 -0.36880678106961995 0.5945177245069956
4402 0.8802290174301891 -0.8966847517184594 -1.2906333134944021
2953 0.6136236787898735 -0.9843759958497624 -1.5384500972305843
2952 0.5572038102838843 0.5220747086959792 -0.4108451485771433
3202 -0.24211509805611725 -0.42305026566330683 -0.30558992440714183
3201 0.931302364012699 1.8184942689364931 1.1677271670112288
3203 0.5633007675319431 0.7458408786937901 -0.03965376637341106
2954 0.3745325087082258 -1.2409297901419523 0.13842113864814334
2955 1.4772360086262926 0.9725910706325174 -0.009962606504668813
2956 0.44203089384519534 0.42387107470411933 -0.7512690790450777
4011 0.4338022343779129 -1.6066001019775598 -1.688509973140413
4012 -0.4055551110164012 1.0289452758935589 -0.2640482286100261
4013 -0.3532984598852842 -1.9287404279624853 0.3934483035265567
3476 0.2623641582242583 -0.12812234003361544 -0.03248113462574831
3475 -1.0518908310231256 -0.5835942370564076 -0.2845308410572572
3412 1.4008816872500651 -0.014134284896678895 0.8190821610138286
3411 -0.6353002778762357 0.4372852135641675 -0.03649498587750427
3409 -1.55451635675116 -0.2724079916124369 0.2177204933495454
3410 -1.1347360772197999 0.056156219352615 -0.9512893378925403
4920 -0.3855187471939179 0.8631729411402648 -1.7174290692996141
3244 0.855009151834883 -0.8231348647835908 -1.0268574492869669
3245 0.4427661730940684 0.13497308262377844 1.0091001627909315
3407 -0.6080394981018845 -1.5581566976381327 -0.5014106048711165
3408 -0.31331943546356017 0.9180930897805328 1.0369929373758637
4917 0.1192489630735451 -0.7618843569750868 -0.1378681111086918
4918 1.0144556426419256 -0.03463038803439325 -2.2207566844629314
4919 -0.17151523838296762 0.2683862343770301 0.5174370412013489
3613 0.22238463496425648 -1.1998518209438596 -1.3033360705657697
3439 0.49513078317290315 -0.7142145179823619 -0.2130387363568517
3440 -0.6539577960116585 0.8089116254123382 1.3221503738785398
3405 0.4681472224291358 -1.7130710269277138 -1.3562862485758969
3404 -0.6604561264771163 0.9693014010576585 1.3790030933187283
3406 -1.1263343836378008 1.198678064693797 -0.6425750330294817
3512 1.4489796330906886 0.17125117967547146 0.5009343029744238
3511 -1.179085099543908 0.5551507121857372 -0.30126711459652
3614 0.1841023960763604 -0.9278331261612565 0.3736212552716698
3615 0.5873867807812874 -0.44587333502297316 0.6571522498878505
3441 0.3787843680447592 0.5386649729187483 -1.3346209485942284
3403 1.6540032674456469 1.103665402499793 -0.009033921739033557
3510 -1.5523439157592878 -1.135912798780835 -0.22224223347557243
3509 -0.5657407544427866 2.195275702678084 1.4181232214136852
3508 0.5023167383084342 -0.5356052545647852 -1.2344938295281018
3507 0.2911681366941873 1.5438290630848075 -0.337883901862732
3800 0.5703057805127214 0.8540586511673838 -1.1112850118057644
3454 0.6892099566771095 -0.6442414378587451 -0.9808509203720382
3506 0.4780365075582335 -1.0951323119593708 -0.720822509753803
3505 1.3820857368619741 -0.10075536056783914 0.3361650131686075
3379 0.8623893494246376 -0.5262664698849094 -0.5308477271083885
3380 -2.966361407282323 -1.4383848639622536 0.5112412779237332
3377 -0.8108367380141717 1.2574484715886658 0.4048713997268526
3376 -0.0607619592494516 -1.3458574323786068 -1.398397919239783
3375 0.43683206021147786 -0.594025275213235 -0.517018355968196
1028 0.3307704181998326 -0.539229250159629 0.19279391976527646
1029 -2.1522191772850743 1.4431024943326654 -0.545742739874358
1207 -0.7034828446665239 -1.091972073305032 0.48633826181428585
1208 0.6284591208943184 2.072778120527058 0.5349445659502978
652 0.8897435260368852 0.027313365495172326 0.28045741960994797
653 0.20417293655633384 -0.2196422936976603 1.8216630698068668
936 1.8551350478183513 0.3611729934915523 -0.2313637155854765
935 -0.28825898330594535 0.4169692652353092 -0.5258327533629076
934 0.4204521548257284 1.2577990770593286 -1.943096082811274
2991 0.5698016179897168 0.025727025885309396 -1.1516527974206818
2992 -0.40801182124562063 -0.8624628470011015 0.29090093219803953
4476 -0.4353077261250666 0.08117422875241848 -0.33909692564834676
4475 0.7194224083296455 -2.6124297017173714 0.19612930636935372
2051 -0.7488808948462917 -0.5409066778991836 0.21579588836179603
195 0.5511555261735287 -0.005491807787165286 1.2474671688248857
2993 -0.7482091675479294 -0.25834094102598604 -1.002229867377521
657 0.2574036400874148 1.7293656762863518 0.1215754473944994
4474 -0.4034211106278477 0.6850375096076139 0.9685649643471625
4473 -1.1024053659439645 1.381700346718998 -2.2439695275537974
196 -0.08144392552893268 -1.432682928970625 -0.054699152260222095
205 -0.6226278900124571 -0.045793855394474434 -0.2890454710980622
206 0.2715878568960517 1.3681465296798807 -1.164376873007177
207 0.8455040005550722 1.213184219972526 0.057483412272234025
659 -1.5821121756655683 -0.245921397650185 -0.23781233171633737
658 -0.8511318320037213 0.12989520605419463 -0.2989276601396601
252 -1.0363168500554667 0.8862453232650078 -0.5898996145795922
661 0.6072729361305058 -0.15883284873984255 0.680367302688264
660 -2.0329749822007863 1.4549675398686328 0.6689390615804859
3810 -2.232022399023883 -0.8729111044923489 -1.049892145063187
3809 -0.4856512441821816 1.123775182946381 -0.18619716261958924
251 0.39769209461671323 0.30903996686930746 0.6839468345957677
637 -1.3352356744144143 1.1325362927670402 -0.19610690048511226
636 0.39605189751248554 0.4325893136535902 1.8849794249452354
663 -0.3365154856122892 0.12774458769398175 1.5041637411779163
662 -0.32776354541484604 -1.614464219618927 1.6226358804760765
170 -0.822337095928625 0.17845343046933815 -0.09417812003395944
1232 -0.6676969266207972 -0.03967828773455044 -0.5199392276327007
143 -0.19815297134339954 1.1810697198679412 0.0603756822559591
142 1.605161882388579 -0.5562967300763157 -0.7441854607241234
141 -0.24627058177663758 1.3516136959282998 -0.5877025776129087
140 -0.03572120596220393 0.21070345191864176 -0.5279480334773716
168 0.6319401701112272 -0.15722319037366903 0.43269186394299003
169 1.5013426502966496 -0.5539051505261898 0.7579575521142365
2298 0.31209195793088845 -0.5092515659157993 -0.09034472291051746
2299 0.40550131651807575 0.48111177937892446 0.5387816302084083
2300 -0.03295978227646901 -0.4596576715956233 -0.6685277858965841
1233 -1.5685263790060169 0.4307870935227722 1.986925667981222
1234 0.7025699537122421 -0.7026800105145992 -0.06557965532224663
1006 -0.4848989362096202 1.5949155614668755 -0.5660514390427731
1005 -1.2731845897886014 0.9785502662264455 1.1474078352857981
1004 -0.8098906530808936 0.17431702584868103 0.6035350804083436
1086 -0.7543370933367746 0.06543691631569107 0.7360859984935537
1087 -1.9625950264795433 -0.27339517393853563 -1.5434726979124374
1088 0.4417987933498202 0.3153590408843958 -0.023445771651301697
3753 -0.18382275798214892 -1.1190976507834496 0.6450772531768695
4423 0.7799825473144426 -0.7563673992666838 0.4449051642972107
3754 0.3560323470375317 -0.8344935580453636 0.22407715237492898
3755 2.1269310742501024 -0.14198221562022442 0.11173927999947819
3756 -0.4538851286902705 0.17291807414764765 -0.37459638689946984
4973 -0.5184960709478483 0.41392821449282474 -0.7830890644072395
4974 -0.7840606810499109 0.8853748394082641 1.8075151843290544
4975 -0.98055926336191 2.626016726475292 0.7257245120264857
4422 1.6777192585120146 0.1961613058434616 -0.024283739850447225
4421 1.3678987307219932 0.48119962124227617 -0.6401256970408815
4955 -0.43777713011929986 0.13415728959690412 1.2958406257837765
4956 -1.056891216748196 -1.0628536795322048 -0.9175843034596762
801 -2.2105993552437533 -2.2196588322011794 -1.2738944242527162
802 -0.42837667488556935 -0.6033060646053644 -0.8521097414841251
803 0.3597634115078153 -0.7330660822860592 1.2124672112784611
4520 0.9366412609611647 0.14788452409972938 -2.834753265560554
4521 -0.03617148568194328 -1.309453720123977 -0.014393379588654387
4419 0.6103903302256042 -1.3750440376597899 0.49068068537017806
4420 -0.20036122030620415 0.3831406730222592 0.0875906010744152
732 -1.6924146636404542 0.16641273766288414 0.5812638795342667
733 -1.0614960712466863 0.1655955196475783 0.7788174051547755
804 -0.39917822419295396 -0.09750712901335286 -0.18104897265451855
805 0.29098003763968655 1.6082726366819844 0.9820115204235951
3581 1.0855730282148897 -0.14547036202774835 -1.741615817823576
3579 1.6587555062152635 -0.20233365528627614 -1.2534833084968635
3580 -0.5639955076136035 0.3895282010931835 -1.0340883851572997
4418 1.0311664501623394 1.4905875697659028 -1.0170386627511028
4417 -0.37635330114530247 -0.9152283046468606 2.0890556058198495
711 0.9345577064908629 1.5544114936344238 1.6418479806624795
712 0.46193258719096736 -1.3537055332927372 -0.2606062429545236
806 -1.40041988776038 -0.6247782071058466 0.15981940718148424
807 0.8768508777401258 0.10481626121120145 0.10348965351695331
3224 1.3667075808920002 0.9407072414531343 0.6662498008505209
3223 0.5708833701522512 -0.8302889079862887 0.390871015991457
4415 -2.3371062457635583 0.0760390579879788 -0.040691117306386304
4416 -1.561076013279882 -0.5335042131996375 -1.3800392168361608
767 -0.47156096172137757 -0.8943941576961456 -0.7691350949491373
768 2.3225024670566228 -2.6798179542721763 -2.0580176534470866
808 -1.0700558878133424 -0.10317252607169092 -0.7242989604948242
4988 -0.7781861616581015 2.3553353151040954 -0.08511825845196161
4987 0.3070887323233459 1.187611622401767 -1.160637750851447
4986 0.16508085134878742 -1.628928025393551 0.6851333343613905
4985 0.49180600232323035 -0.12946197335254794 0.8601874143487912
3422 0.7497102743104562 -0.20429682585698739 2.6307986108733363
769 1.461351505130578 -1.0412432267521814 1.3944128718404005
770 2.0799675698287157 -0.6289282364947729 -0.46323179804310854
771 1.0540927560654023 -1.70352833766754 0.15738248445600383
3536 1.0478965302838583 -0.3585637788054622 0.10050957203598454
3537 -0.4364172637894161 0.5515467726381293 -0.6728262941255172
811 -1.1475668700178596 0.6270140309110044 0.35944747660462906
810 0.9113308294359355 -3.187038685574404 -0.06454605481989104
4403 -0.31316485674987204 0.3724078629326443 -1.3356679027161134
4404 0.018389153715794263 0.2653847167409783 -0.32452883919363384
4405 -0.8915793603316077 -0.7983329894370681 -0.8553782155716378
4406 -0.7879027948432001 1.3396013406235234 0.44163049720807057
4407 -0.009564941521157 -1.0911256397886786 -1.0957732267276314
3420 -1.2290731909938066 1.3384500766087173 0.31527731152547334
3421 1.30218178946651 -0.7104043264399071 -0.008473109010576851
3418 0.5385926157890396 -1.5008148778744759 0.42283646895733423
3419 1.1316530512310694 -1.2266204060645638 0.6139072435987603
3417 -0.32471006329541224 -0.8595974995160881 -0.9462303706942955
812 -0.29368177538404344 0.2507622577557496 -0.8878467578589173
813 0.274126606239575 -0.05327356075886108 0.6360050185500008
2951 0.7987164365818252 -0.1305172502981354 0.39849050728400337
3416 -0.10298081480083082 0.3657351632590281 0.8565978662509498
3415 0.13717040066604794 -0.02162253177511067 -0.04691678139133887
3254 1.073133513556269 -1.272681419227577 0.19322067622558037
3255 -0.20866849168494947 0.9598373243059966 -0.4760322360944489
3256 0.5115424542612895 0.2532512432718913 0.28829524607778073
3257 -0.8751481696094778 1.2198567158517992 -0.0838310649496439
3258 2.099982772321413 0.061097946121680236 0.41142807161464534
3259 -1.8634229410397845 2.1954238265311576 -0.3513329164954535
3190 1.0098581101695294 1.2005273038789783 -0.5712000423928545
4014 1.2224467297840753 -0.3892656184467389 -0.2944814504538256
3474 -1.9854247640932896 1.089430218744809 1.7164452729598527
3473 -0.30898395810684864 -0.30081314303114554 0.17904604676110408
3472 -0.5402990903410995 1.5520909297628167 -0.22685270179677103
3413 0.04939940882288807 1.3946109787114425 -0.526116403155232
3414 -0.5210591377038541 -1.9052174197435723 0.7788641713300923
3260 0.4373796608775391 0.025616083050739646 0.4653299830234825
3261 0.47050885005186976 -1.1092153348623217 0.02615921434759283
3262 -1.842648115055004 -0.9161513052789848 0.6163787755459406
3191 0.42925315586364493 0.09956758014774565 1.7707776346159119
4015 0.971873951391691 -0.9545690722231629 0.5086258177765983
3263 0.36866414798834857 -0.513120360030962 -0.7874073363079701
3264 1.0500985814758073 0.6191036958766969 0.1611601857735425
3242 1.2974770387944972 -0.6761587186686648 0.20585836050058567
3243 -1.598841983556146 1.5551752275608892 0.7973805297516061
3241 -1.2437724152832947 1.2210260617180184 -0.9231241809342425
3196 -0.634897084438496 -0.6088588861230142 -0.9156578862911002
3194 -0.5892017923743849 0.9667292265803543 0.6857277370032232
3195 0.36982811023410583 1.0370523886164071 0.3127816424992884
3192 1.893930716302025 -0.622501133275958 0.24844121312213088
3193 0.14283800476301123 0.512630847930301 -1.2155279341411247
3435 -1.400031697117471 0.044997653918465996 0.5834137142321402
3265 -0.18153638520090862 -1.8914667429186325 0.06572706630915061
3266 0.16018290642610034 -0.8021158713799691 -0.6530727211443738
3267 -0.37027727721309295 -0.6897579795208839 -0.2732461499593059
3436 1.7929890419299936 0.35271349536197666 1.0622634515501232
3437 -0.9300243627803818 0.9743110315775799 -1.1411014169533873
4896 -0.6943450982310384 2.285054460487403 -0.11598385310533875
4895 -1.7151057128471106 -0.6890782960393116 -1.5849307180387626
4894 -0.23865299811237878 -0.05746923995885704 -0.44701035646621085
4916 -0.10433167929395232 0.34018024945790293 -0.4693526599007578
3268 -2.455363444529622 -2.5215046120444624 -0.5120168812773989
3269 -0.06754906997759724 -0.910789177010721 0.7925639115775112
3438 0.9864774501401078 0.6540495032381498 -2.6559069960153487
4898 -0.3532709297234441 -0.22111436877461016 -0.48819089516407593
4899 0.09621924433867796 0.8585076062391888 -0.3950587186525918
4897 0.6665765243593839 0.9590690953890099 0.25525660209103895
4913 0.13784013744906176 0.839009656428217 0.377265622416949
4915 -0.628924928393303 1.208728611856454 -1.695400319703551
4914 -0.13976757087226052 1.1011374889324155 1.5551289708586007
3270 0.7331267735512059 2.3310148970911047 1.2853414584959995
3616 -0.2466170837982385 0.4232067762389961 -0.047043997681195604
3617 -0.5898331044337628 3.129486007606879 -2.195255289319231
3460 -0.07461099563916114 -0.5824260592964654 1.2064563846990495
4900 -0.8882319115111296 -0.9608513838032138 -2.306983487461154
3458 0.35151768087165136 -0.094846916298888 -0.28110498498496905
3459 0.023396045747337252 -1.4893369825043268 0.5491869209231193
3799 1.1798553488445844 -0.9988346199775584 0.06900211396397177
3798 -1.5281380935322677 -0.37174163931812154 0.6919819975805919
3797 0.9878722668120318 -1.3440023156856487 -1.0977349946351573
3455 1.2845053904790633 -0.8147376456219539 0.8116220828262517
3456 0.46056488879735946 0.7148457396203897 0.8222007989142089
3457 0.5534247116715606 0.7210995525765908 0.2599109314010135
651 -0.1479682572117515 -0.36029358947777734 -0.27896805038372663
3791 1.4730278739214175 -0.4111335233366308 -0.7250107935615211
3790 -0.255092754950696 1.1246055585730255 1.1174525829362572
3789 1.6579256793104222 2.488494441821916 -0.03628461667743111
3788 -1.6523511716671369 0.830702641601132 -2.117557285409074
3372 0.8065815744497972 -0.7957572860087405 -0.5002859569307274
3374 -0.7573259430194309 -0.011507310947254795 -1.2799432489518456
3373 1.2474678098676983 -1.0595122927286234 2.1778974456755513
1027 0.9237500469572076 -0.6558907731540408 -0.4432611526356575
1026 -1.1128443948761082 1.1496336333437063 0.9647872513284685
1025 0.7798586908430567 -1.4779515223028372 2.8279192114662104
1210 -1.559041776009734 0.7632162071687482 0.4147045840913657
1209 0.0657007331301912 -0.9477413220481377 1.3973156500063553
3787 0.5267964639467231 1.22127644621738 -1.483147492473182
3786 -1.841166980086875 -1.4947473292658242 -1.0947456840114878
3785 0.8722133498616609 0.7061415442456258 1.4009616096101407
933 0.07525061891812221 1.4955132991300706 0.3379528469877724
932 -1.0979529489808895 0.5252962067892593 0.2088463496277902
931 1.4861942980008163 0.7801713988656691 -2.2949447659678612
930 -1.2416893098311117 1.4751623263136333 -0.8675473164470124
654 0.26678884340888076 2.80266171575501 0.27814486795051874
655 1.513995398156016 -0.5959792267951259 -2.029100826030541
3784 1.028014820755884 -1.1507754389187625 0.024198654026664046
3783 0.5583415318515137 -1.4308825792871442 1.887442769937076
3782 0.2110281003257447 0.5675639160923872 1.9933269382876837
197 0.12217279574882742 -0.9074845117432828 0.635670448270803
209 -0.5614606565085379 -0.17447081555548163 -0.5310659593169306
210 1.7559958371294664 -0.23029505458473745 1.189617826779662
2994 -0.07861753777331412 1.4567469175320855 -1.257375196031109
2995 0.7033687782568243 -0.1887804011322382 -0.7319267728873529
2996 1.3904382960315116 0.9367254907557134 0.913453080428912
2997 -0.2124114803700907 -0.7471503970721765 0.016258862011112235
2998 -0.2539069348831346 -1.325634270158363 -1.933725303988616
656 -1.2585105476547962 1.0084681957071726 0.903207469683704
1225 -0.8800079190199676 -1.3771798191350042 -0.6575139321674877
4472 -0.44436164952138585 -0.4280886774644514 -0.10010025274051398
4471 0.670794972254864 -0.5774744120779794 1.0954538180921718
3781 0.6079901425787781 0.43715698852346063 -0.09804481196578674
3780 -1.1824404585853352 -0.2207958976211791 -0.40468096130871245
198 2.3815384837226103 1.0473160812100957 -0.6082130795378845
208 1.665263799807487 0.761053708807727 1.5124752865051212
1227 1.8584989211809326 -0.7166517425228804 1.1775647205527233
1226 -0.2171513065355625 -0.3139837725110559 0.4530298257579314
253 -0.0642646127187233 -1.7645224420254735 0.0654416372207256
3779 1.032028926582499 0.39145681080224837 -1.5993382364777786
3778 0.712271711287369 -0.19500121329024928 1.929443060336595
3777 -0.8398507560657493 -0.6068621704817332 0.6727219146574206
1288 0.201719016320007 -0.43220185524582144 1.2606610609243354
1229 -0.8306465093010597 0.5139767415825572 0.7403711982038741
1230 -1.6085758890682622 -0.6146043551769906 -1.4419800813209385
1228 -0.41077556955023475 0.2975471467639809 -0.46346452245985453
3812 0.5374060707958102 0.5589435334484963 0.06147059955415507
3811 0.6579435869182743 0.38255899373355795 1.273180423757131
255 -0.7345173983651438 -0.3463072124190847 0.6395071069635241
254 -0.13221348830263377 -1.5177122102545713 0.40993020741787684
3776 -2.5535013284681156 1.0044948249702927 -1.2745384086314822
3775 0.8974242162766679 0.6771023241255397 1.7157791244300777
3774 0.40127273724548285 1.0817587673108835 0.7965562702095086
1290 1.1676561097424016 -1.6312258549754337 0.1488975062280901
1289 -0.7550824605910731 0.2860708857844775 0.4404324904742652
635 2.217936905859124 0.43701013675588696 0.6482328390035653
138 0.7123483106431987 -0.9336037393689278 2.527517607761957
137 -0.7377416215160534 -1.1322600940230656 0.3332513214496531
3773 0.23439253974163513 -1.0714060358722692 -0.1279523473589566
3772 -2.3171942680088327 1.4228184650803535 0.4480550508552277
1010 0.7589413751154768 -1.1349045618121563 -0.7580128468420673
601 1.8063784899890114 1.4362721543581054 2.418653243953838
1293 -0.4918118226422912 0.05336738860434245 1.1598402777259236
634 -0.1951697125559693 -1.0469837741567791 1.349227060521738
1231 -1.2808366909892848 -1.0285172150664867 0.26426527559863794
139 0.6753366192365153 0.2713292070164577 0.31735834442785493
1009 -0.08782777485194557 0.20501036636016054 0.4099803431969167
1008 0.29796899520504744 -0.14910880862544595 -0.2971894675603568
603 1.2395829113070704 0.9775684919694969 -0.9663139854364561
602 -0.07084938304230995 0.3152909090774581 -0.6052832496084901
1295 -1.0892968115063348 -0.2592406451969266 -1.1982023364933738
1294 -0.8724425200210759 1.0391160218751805 0.6676809315960994
1007 1.4448521673642503 1.0279569531669437 -1.0636329085561111
605 0.1766673842108358 -0.26198197110917404 -0.1312426901288128
604 -1.6092169904950155 1.2137444174588914 -2.1729427958644814
1297 -0.07029121653030493 0.5019388735953162 0.35452094605885565
1296 0.6917265621090766 -0.2980177522056934 1.1504448292529608
1235 1.0704923562022377 -0.7755149987470179 1.3239663471987615
1236 0.4260805887117489 -0.3378777789761015 0.7223316572839056
1237 -0.017901959532883815 0.6626933701125101 -0.45234157372906675
4450 1.1713473922176556 1.033278097611599 0.329463938407169
1298 0.9607779007689248 -1.0941189728329581 -0.21117502545194677
1299 -1.7817677787630037 1.7941190596908672 0.9164248698641658
1089 -0.45510990546727853 0.06294910760183145 0.25581535164148
4426 0.75012623027414 -1.063612169322925 0.12273615282166163
3751 1.7626634169912399 0.9907080464813061 -0.7007918355769815
3752 0.4596070012329977 1.931124362076092 -1.3559017655061758
1300 0.1320513034357274 -0.289352726293054 0.016210375763925394
1090 -0.5555300856850449 0.012587684537237041 0.1803628660695213
1091 0.9745224132887497 0.13538145835613635 1.2499106719904984
1092 -0.5261362392363755 0.09125426076211333 0.2674156351411925
3886 1.6891588660422183 0.17021137073275602 -0.29948074159238114
3887 0.20344791209153873 0.41975203499055536 -0.13106533721652708
4425 -0.7879096662172351 0.5291657666916443 0.6980196573479006
4424 -0.6234321001668492 0.2189791659975952 -0.7533219148190623
3757 -0.8207886499172735 0.345441998753761 -1.2985115269811818
3758 -1.1057650178075438 -0.3287489069547367 -0.6349917923014241
3759 -0.8182370388697586 -0.19840200478743897 2.186685916336181
3888 -2.5755286185346495 0.28015445627190017 0.5317033635197884
3889 0.7216732340236287 0.5299933348633327 1.2804270146802927
3890 0.7321453962308146 -0.9300839191330217 -0.2721178236351654
3891 -0.058678992479568204 -1.270953344147553 -0.9764830442879515
3892 -1.663065282631013 0.4748842451162868 -0.11947886427572772
3893 -0.5412511648113941 -1.3505362289356644 -0.8519533085362646
4951 0.58985976127431 -0.13977960388806385 -0.20937064550782997
4954 -0.49105754399336043 0.5611373026358416 -0.23031729302303494
4952 -1.3569907762290956 1.4307501753160772 -2.144399227592963
4953 0.6583564363879564 1.3662625859507076 -1.2607808398520026
4977 0.3224091938628004 0.19774157544908927 -0.45889315393961216
4976 -0.1554144207749175 -0.5920898750349749 -0.4980405032773871
4522 0.33885066561747845 -0.8193268368435073 -0.6695866343965271
3577 0.3699123236155818 0.17852907048658598 1.4589365657928475
3578 -0.8220956261406611 -2.1917726054641697 0.4257146173793225
730 0.8500998588232553 0.6403588624977945 1.381751987473092
731 -0.6285991926108555 -1.0760366342517893 -0.03934656755022448
4979 -0.228611707458234 -0.005189399604040468 0.7244381607740223
4980 -0.943189252715662 0.6863473727541776 0.7976260097689417
4978 1.70594801567247 -0.9166651704472842 0.6141427093233263
4523 -1.4330922310472252 0.5054779584063737 0.148499598471863
4524 -0.7841491796665123 0.30907461789127966 1.0681139619365134
3750 -0.8798962829944212 0.5427892231758694 1.0794839320714285
714 -0.903662536291497 0.6908282263271268 -1.3236341450225348
713 -0.6819505096115599 -1.960100280146677 0.41153829272192644
4982 -0.1728697844594344 -0.7590596720233402 1.6154577662796283
4981 0.15079767458701107 -0.5842771159012622 0.2291559009669391
4413 0.7448947009734181 0.693302142173672 0.9964620444109284
4414 0.6241394754761738 0.3260158394241464 -0.4008260414855688
4412 1.1029729791572742 0.021287937241648125 1.1764872787244491
809 1.1958632000948195 0.18706651589343587 0.30010145450106507
4983 1.4344751444841344 -0.11367728699552149 -0.5636859831241825
4984 -1.9532425739171668 -0.5198637127020729 -0.18258438588206144
3225 -0.8605356323791178 0.063649405027838 1.3531877543983515
4408 -0.5012932589651544 -0.14329431855967606 0.2692659447285964
4409 -1.045055691424912 -1.1193590142365126 0.06429278018860152
4410 -1.1924734194299043 0.4305475517075015 -0.34801487718146085
4411 1.0452379842167783 -1.2028614098328192 0.9434550983275027
772 -0.08260291067251363 1.3766310748559787 1.4558120860137655
773 -0.092289238287807 0.7199699068041878 -1.4734446919159676
774 0.5561934277503173 -0.4272868922493706 -0.4200116823098151
776 -0.452741396767771 -1.4235083732215144 -0.5195063286179589
775 1.8460031807692732 -0.8796484019304223 1.730807040770662
777 0.13719409177442382 0.8104832997516092 -0.3794929334351913
3538 -0.5609310339559093 0.9967255049878118 -1.5570194063911538
3539 -1.0701120039925205 1.0876882311238085 0.016919312340546604
3226 -0.46652252530298854 0.03701829610311305 -1.15272136912688
3227 0.2063400322652469 0.7872354541605197 1.1843824161347094
3426 -0.03507826899283974 -1.0363702334349978 0.4321108889000319
3425 -1.0827922283789364 0.6030078577993943 0.22000138469300579
3424 0.520559252341891 -0.46768346131758054 -2.9907649877984372
3423 -0.24148959021512026 0.29294868205296054 -0.22435271500128223
3429 -2.063296420079141 -0.46321314534605545 -1.4043263069472136
3427 0.1333539434913114 -0.07422749682211002 1.0491066651481522
3428 0.8203703366014059 2.1813304670850413 -0.870714140067536
3251 0.6684074577415152 -1.5613051651494296 -1.1099660515745706
3253 -1.0611005528391584 0.3580767888990823 0.7708100973748467
3252 -0.673535577122824 -0.5449419786002191 1.0555331159250152
815 1.1101256942495714 1.8882777779996482 1.7355138403938397
816 0.07307747343613405 0.7559834077147389 0.6286378180372011
814 -0.3104200424801982 -2.422736761152816 0.10796036647569122
3189 -0.23257816064944975 1.839911353011752 0.8967589307707825
3188 -0.5616854231967058 0.20502473269542887 0.788482803721764
3431 -1.7049376366446527 -0.8776617999250531 0.2039938479305039
3430 0.9853032034145596 -1.8127151064851577 -0.05923778501448319
3471 -0.7065451782982972 -1.304455327017084 0.03763302351592024
817 1.391226907012464 0.4955689682595423 0.42759928162040195
3240 2.2247042489926203 1.0421772940761467 0.4526214054008745
3239 0.6568295823256518 -0.9401431003562246 2.0299262329012127
4016 1.070700394397933 0.5222233648115931 0.560421590788866
4017 0.6965018630892414 0.9266897425155126 -0.792955956900847
3432 -0.4583777834840522 -0.03223206158299579 0.9156156116992882
3433 1.5761994436194873 0.16395744092085174 -1.6817124267058443
3470 0.626516298170177 -0.17116103821570544 0.02004271073647218
3469 -0.18655746950853 0.03825572346597532 0.8565162971764805
3197 -0.8715977353269018 0.6252176063244886 0.20245461530669365
3198 0.9342090851123586 -0.4628358365453338 -0.3869558681355262
3434 0.6917943103347731 0.4721298213546858 -1.171343909978221
3468 -0.5018383073019355 1.6665457893641342 0.25282597400758416
3467 0.23182535828888615 1.2508514048606747 1.3680206321553512
4891 0.5666553544805127 -0.7675545328200923 -0.7784974380420718
4890 1.2118616937382538 -3.0023711094038785 -1.8591393923019697
3465 -1.181617881609775 -1.3925124937253668 0.6508051397792622
3466 0.19590436929207522 0.2210296166383739 0.0435289344593767
4893 -1.4582374726139353 -0.6749198435900688 -1.0341165042215592
4892 -0.7097963118022144 -0.44557976867688764 1.21886279895622
2947 1.291050617555919 -1.374796589719772 0.6557978227814069
2948 -1.0953868226667653 -0.47331568247951716 1.2288836026151064
2949 -1.3317401594300122 -0.566178897418921 -0.5350991117762978
3620 0.331077602618343 -0.023672495087471768 0.22555649115920884
3463 0.9843011024140293 -0.06229014722523232 1.1838880305121695
3464 1.1555626728515513 -0.9092571008584676 -0.5891088311277066
3462 -1.4057400079752744 0.714330731697669 -0.26006328543315704
4910 2.0184970146308503 0.7867266187403817 0.11502589076125425
4912 2.2765426756470126 1.4869634583940798 -0.596896828315217
4911 0.5661739205806747 1.3747208750280857 1.6536031241718319
3271 0.6712015548553525 -0.08910385978387192 -1.0088943292903472
3272 -1.39571389756297 0.671685605766597 -0.8212087935517421
2950 0.7744172634717221 -0.5438352553246681 -0.5503666556997806
3618 0.4397938855194626 -0.8778763432059314 -0.5098472888110621
3619 -0.6829910606047336 1.1968381428968997 1.0706461089948038
3461 1.3871825567700238 0.1958506214444177 1.0734804835507694
3273 -1.091935322040232 0.3420596636860549 -1.6290657687623988
3300 1.8399633474564274 0.886202197090699 0.6967646529252709
3299 -0.44382396823230325 0.8012334424440404 0.7664117994349094
3298 1.239266930470598 1.5113012506892336 -1.3856414395588605
3796 -0.8880219553811519 0.48610669552829533 -0.022046990115297038
3795 -0.7011981014302371 -0.44852436515178384 -1.2751174593780414
3794 -2.3686957621130347 -0.9896118293238679 0.6530891166325599
3793 0.19522099461826323 0.009179330083804685 0.6023304985987779
3792 0.7071038923858268 2.5779631081836736 -0.21786336518983174
249 0.08429807889596522 0.01718155054162218 -1.4581654577216876
250 1.5557432102354718 0.7787368845246593 1.8498888455771094
3001 0.06103687822319215 0.029050662581454265 0.27706206033114267
3002 0.6637931240282078 1.1262524964400151 1.7369705632525663
247 -1.6491896439454563 0.4769484526465663 -1.1128576723275496
3369 -0.23723794667338088 0.43641474799657776 1.4163582747892112
3371 0.31169967516400876 -1.712310204200926 0.5644870605988332
3370 -0.39354940313793835 -0.7886006526949634 -0.5238351163293011
1194 -1.841195400468358 0.7288276421964504 0.9718986676532283
1211 -0.7398335541519074 0.5385585877851907 -1.14748677230929
1212 0.11709976370609779 -0.2547552919699085 -0.42307858808383286
1213 1.6188382051953063 0.7221743440049944 1.5421424852524674
1024 -0.5354036116488324 -1.8281223169951277 1.6095481187179344
1023 -0.7379395180644357 1.4307053009741901 -0.3374343957343557
1022 3.211163743423512 0.5726250084685798 0.40069574429937777
929 1.5715080043233904 2.26124885264678 -0.7921942346642178
928 1.9984935769958698 -0.4284532522264886 -0.672771271833241
211 -0.16405960978670192 -1.8490468408664196 1.3400068764252169
212 -0.37025962051362193 0.8978090686592937 -0.3347878977163226
2999 1.3160353885609286 0.8088516026647155 -0.6446471146739678
1224 -1.400223643727463 1.7876231544659449 -1.2770512334293795
1223 -0.25286044345537984 -1.4485838426482103 2.140522945319717
4470 -0.7896061526520586 1.3299198746674175 -0.7554519385334466
199 -0.7459877989036133 -2.0937006023820435 -0.8837519809754197
200 -0.815702242038242 -1.0302561165430337 0.5152017692180552
3000 0.5588826066014556 0.6450290165577464 -0.9065701169237355
4469 0.4031251237475766 -0.23308465624103308 -1.512506254046688
1286 0.17066577441849942 1.6786039804060386 1.7794523785783816
1287 -0.49740428133404574 1.371300460368721 0.8999179093528729
1285 1.57664359654996 0.24668593420499133 1.2054026388269719
3815 -0.14657989905491312 -0.8079735687841373 0.3900808264768566
3813 1.146447130102569 -0.35818679471718645 1.0707243020795658
3814 0.5777971524928052 0.24614129136797608 -1.3003864914489838
257 -1.4391918261737688 -0.40427315392561014 1.1289595216807191
256 -0.08179373960711822 0.6418904174901902 -0.37845045114075176
135 2.2476334486445513 -1.0083580727605836 -1.429045158015221
134 1.0666941603039752 0.06128422362745424 0.3046996809485021
1013 0.2457430322338493 0.975323383101417 0.10296209773085788
136 -1.2716406812304024 0.3264879172918072 0.01844665290060822
3771 -1.459841041727797 -1.109757127115767 -0.7743297472388666
1012 0.05308604999503507 -0.1690143454299936 1.732722458872176
1011 0.6165743809988802 -0.19941061999121218 1.9713518439779474
1292 -0.9370517431499681 0.3527055326927752 -1.4369146575359268
1291 0.5619488634174841 -1.3579454600850434 -3.24263832939127
633 1.1457848920405207 -0.5505303953559693 -0.10633297738084391
632 0.8820134963118309 0.3699543174677745 -1.231904341943045
3770 -1.5641009749646788 -0.6598775760926757 -0.39144918505444126
3769 0.7903627031616736 0.7197912549986053 0.9712141057531644
3768 -0.4389581110975565 -0.7597527505459725 0.5616469566916911
4448 0.6103760118014535 0.4498496286193717 -0.12381364037709183
4447 -0.4602938209043158 0.5128827687036029 1.2630715055703245
4446 0.128453239509154 -1.3816742283801908 0.05027992171055126
3767 0.3111009499154 0.2174940818526494 -0.7819241253873047
3766 0.7246130163694768 -0.3570619087854161 -0.032238193507392404
4449 -0.14347554723662131 0.5806669802217492 0.588210364441863
4430 0.19306180872403386 -0.07892725997854985 1.4458036549500926
4429 -1.040662838395108 0.7858666230265775 -1.3357989109868404
4428 -0.5718813332697272 -0.013083435147151296 -0.22725024872476576
3764 1.1468120182667492 -0.7630432239121269 -2.390121723223076
3765 -0.8724419976441172 -0.0770149543043319 -0.2266345405970715
606 2.0274237883462733 0.2840689465012027 2.404341202564143
607 0.202786136661848 -0.4496618120225848 -1.9845487148814671
1238 1.217837903761892 0.9884639065547811 1.563453440754681
1239 0.3160822253794857 1.955320544897142 -0.1721262676946912
4427 0.12101688482783697 -1.4518952352123398 0.10677266459905604
3762 -1.2095146750375707 1.2383815215927485 -1.9617181743612517
3763 -0.04186218093553895 -1.61677975835024 -2.0477225779753847
608 -0.236705830152589 1.9607077141704476 -2.242002696203131
609 -1.646173126061673 -0.14510748060458584 -1.4684161292731974
610 0.29258343538479753 0.9452388810187697 -0.8937383942448207
3883 -0.012374996613220113 -1.6423383881555913 -0.09836741027906142
3885 0.30588826113060463 1.4560087544203608 -0.751273288448074
3884 -0.32825724908034026 0.05894360786346964 -0.565121785615454
3760 0.9480510104502661 0.4539578243118639 0.012668992166499905
3761 0.10415350955148744 0.6289672491131676 1.6819807963433588
611 0.6907637070458953 -1.7662515461422985 -0.8759597375894836
1093 -0.7896826279386973 -1.2906927792311582 0.750917291237555
1094 -0.7477040152959596 0.3371176514599258 -0.43174343129455045
1095 0.8657844066784898 0.6530603924298928 -1.1542515774504638
3575 -0.833402235705673 0.9796005335214514 -0.1470896500518304
3576 0.11214520494859725 -0.37956569018170905 1.367591524870962
3574 -0.47924417994675533 1.797369887944614 -0.38239470767693784
3894 1.0070381494980345 0.5256836280931234 0.6353440137557742
3895 0.16523235171421435 -1.2534163488907426 -0.24472205104561082
3896 -0.8267241546678674 0.7918336716808161 1.7928146617156882
729 0.1758920596673412 1.358427875203057 -0.147354111265453
728 -0.2303746061432284 -0.03301611165196239 -1.1291357656088836
4525 -1.1730186700781884 -0.25930842095745715 -0.6402626318160042
4526 -1.0617521102622458 0.30029975563432576 0.3591784602047208
715 0.6024717129752393 0.9222257762038859 -0.16288266328285736
3749 -0.9438931588253794 -0.6077870030715098 0.09464444074239907
3748 -0.5807749604491532 0.10389553116955791 0.6601581239676583
716 0.08556447382790977 0.32570021047598596 -2.0240582623668333
779 -0.7883171881218372 -0.29316889761372855 1.3062138262392466
780 0.8004529791584188 0.1845590160695167 -0.45576655166932206
3747 -1.8031119424932385 -1.2060940564403697 0.42738407694157676
3746 -1.386599687740038 0.9803933750009625 -1.030915270221307
778 -1.1544452907873715 0.3756104248777067 0.38476363058957064
3540 -1.492894787212398 -0.9521570350524579 -1.3036917841340148
3541 0.5521333842624321 0.7236657153870978 -1.1033780778726827
3231 0.2835410033244484 0.2799959013994287 -1.1886652860702278
3230 -0.05191034143164974 0.5577516962888351 1.1250482148426002
3228 0.019219981736726954 0.1924130904985102 -0.37978833415547064
3229 2.0249843438653334 0.7392926240942255 1.64866911938301
3185 0.058475848507605566 -0.9610171989272069 0.7689825571294817
3237 -2.2040375024829753 -0.6132926758958632 0.030287908408486997
3234 0.1503219001197516 -0.2370911250066548 0.8576997864311257
3236 -0.6663342581410665 1.3001601444368283 0.5868839765617123
3235 0.522670884662372 -1.5344868272480123 0.22348716506138638
3232 -0.6543793275962246 -2.2527177504257234 -0.2104522361398935
3233 -0.3164624646336975 1.592760552879825 0.018439647219400612
3186 1.042919630683714 0.6477854109359449 -0.7441010393644626
3187 -1.1540362303197107 -0.6897405396038563 -0.5158834013855711
818 0.33921940962176017 1.9609931073235716 -0.6557878142394864
3238 -0.4138890756652188 -1.5847169270138763 -0.9663907870400038
4018 -1.2701470332513567 2.112754634954684 -1.4499132999972177
819 0.38728562216848184 1.3059101337267998 0.265941613653498
820 0.34007959100145624 -0.6435046767423397 -0.31126113214573137
3200 -1.1405692458194578 0.8113197954438378 1.744053653608083
3199 -1.0230754191849472 0.09986054791935092 -2.22814955117645
2944 1.509149989800736 0.07568413255587356 0.09200675155772012
2943 -0.21263503055356098 2.269383090293229 0.7290839354180598
4019 0.6612541666803983 -1.459236268673354 -0.37219555157520434
4020 -0.5503367545293453 1.609056394543197 -0.5576801393830124
3625 -0.1639190703327206 -0.882106913481526 -0.3630520407557599
3626 1.9266669999479684 0.2905514404249761 0.13518463851258233
4889 -0.8415125912454223 0.8387475423983354 1.1191848546635677
4888 -1.00481245390356 0.9267247759469729 0.9743596221186233
4887 0.4576015225564348 0.006390014235837252 -0.45289134766619843
3315 -1.3669539362573377 0.7417446881609738 0.402151696196238
2946 0.20176026376877948 -0.1646800122623747 -0.3835000681841305
2945 -0.8631123213786333 0.046563375550413164 -0.8712756580852448
3623 -0.09030229237061871 0.04402593422886775 1.4576735137084462
3624 -0.27811039626804335 -0.253145054191011 -0.8939516920599788
3320 -0.5028830879909609 0.8048456849233562 -0.48560194627336606
3319 -0.8443919825079313 1.0664788230145494 0.38141420635683476
3318 -0.4597793207098578 0.7943319320823056 1.5802048547355754
3317 0.42152434990808296 0.33470257320100866 -2.069519663715224
3316 1.0848991017767475 -1.7988189294687305 0.930878837054775
3621 1.4349123870829559 -1.9110312527018212 -0.6463200760074906
3622 0.4907177422885651 -1.2489284683458823 -0.6297184454534346
3701 1.6399900406284154 -1.0264128242619797 0.16469853650252406
3324 0.6100912099109866 -1.1586922314152288 -1.3886137174787236
3322 0.8934973482640425 0.8769163498185627 0.4443094634281183
3323 -0.4046272805350308 0.5857018137227139 -1.564446053893311
3321 -0.10039866648554066 -0.6289150669386349 -0.5139508124132571
3671 -0.7767364143891853 1.7498573256798133 1.3508056326955382
3672 -0.8616069479790114 0.535909977263815 0.15581849541518794
3702 -0.3377639767233766 0.565012509929208 2.064192572101158
4907 0.22411582961638213 -0.8821597664275832 0.21591155451192864
4908 1.5836944847648096 -0.6532112575628222 0.5005059243938951
4909 -0.33316070276637977 0.3537582598387635 -0.3685135512327068
3274 -1.0616614724908267 -0.018968015918216063 1.260236462933388
3275 -1.6949782976969114 -0.07029569901990229 -0.17838843264166154
3674 -0.8337188500810513 -2.2626201904571426 0.45224731988476385
3673 1.0097535314127815 0.19473971880288263 -0.6233730460468013
3675 1.071646663340978 0.48098714060604064 2.5883236232219846
3364 -0.5479772341396114 -0.22700113078290268 -0.9608456879674058
3363 -0.6637633067171981 0.24413727149604497 0.43616656152257954
3365 -0.07216831505409979 -1.763559935056645 -0.8026522523244759
3005 -0.4421916185342317 -0.011240055535679097 1.1064793187105564
3006 0.530303559711278 -0.29689102625505354 1.9220878414279812
248 0.07394837566770698 -1.764741574217867 -0.8108437749073709
3366 0.8986879878892158 -0.9903178402762619 0.451502925279733
3367 1.4848744691954148 -0.71198040023609 1.9279547300497686
3368 0.3533369282690959 -0.2322169307281287 0.3263627526265055
3297 0.5665174402228454 0.05210549102338089 -0.5569543149902279
3296 -1.1053985819672705 0.4417018078300519 -0.7727995878142687
1200 -0.7696350907239835 -0.4165826415014846 0.12286377489487657
1199 -0.2918949097925227 -2.511428956712794 0.17547071239610015
1198 -0.3695979732139695 -0.03275983191803966 -0.4535445126913472
1197 -2.459036800566751 -1.2304834488215628 0.3604874636515695
1196 0.7670658336795272 0.4687835194076217 -1.1117309443815824
1195 0.31134018842811584 -0.06500367218292497 0.12750075194997762
3004 -0.24131210034337813 1.0682008747834355 0.15188435675605683
3003 0.36110189325005876 0.1310374461606426 1.1302797868643664
3680 -0.5306641107187364 2.493396720403928 -0.5556674749226342
3679 -1.0650353348571557 0.8273549991382696 0.20300753024021673
3681 0.14910529159812247 1.7921341891932356 -1.3387083128582824
3682 -1.6116559503516301 -0.8788041447621747 1.555331706014244
4385 0.11529196417494778 -0.8151038144981889 -0.04490264545714645
4384 -2.269012895443165 -0.2657529313541946 1.4209820831493059
246 0.2567541754624183 0.2302601907200134 -1.327701788726654
245 -0.48561811404755995 -0.6467518618848702 -0.2820409718823693
1193 2.042357096826746 -1.0555056534207226 -1.8440017289839683
1191 0.6346919596807324 -0.052375085904967894 1.1128988519069984
1192 -1.6331897904881525 0.39740602015380233 0.6440998646978132
1190 -1.179387924397999 0.9609021220389644 0.45336013189619506
1189 -0.629474810088045 0.007602834801423819 -0.7762188024821866
1188 -1.1794026435011213 1.2137373533188305 -2.3209500471408626
1214 1.0271456271698614 -0.656187351540646 -2.6881525052701774
1215 0.19116446020583686 1.1575532634322614 1.5902321513686968
1216 -2.0719163947436523 0.13596112531501264 0.854988250038173
1219 -2.187173028945925 -1.2493807045604237 0.1991794720995882
3683 0.33374208994747295 0.9871715997391709 -0.7832489838553709
244 -0.8104929235120681 -0.7491627624655384 0.024645224142602944
1218 0.9299469317197785 0.27879672698051927 -0.950593969718948
1217 0.5703812679148992 -0.3449379326664739 -1.1187279898259908
1220 0.7608508215864058 1.0537320778096537 0.00027361466105345345
1221 -2.0364717019178866 0.29561891665423495 -1.445081794479435
1222 1.0733805742161504 -1.8129394717165206 0.8677721737045802
927 -1.4522574117339173 -1.176261717751674 -0.196490670198048
926 -1.2073645668660642 -0.7905164443402273 -0.9340278464900572
925 -0.08253336885979698 0.014277901134844052 1.1453804827456373
1020 -1.1983597491610425 -0.09850700217419245 0.6108725689676626
1019 -0.6132844060587955 0.6952518708645903 1.3058473323044386
1021 -0.8084368246555318 1.2637461743406073 -0.9921870950565994
213 -0.032306927901568305 -2.4110261934892545 -0.5174734268300418
215 -1.9564594678530145 -0.439500898610231 -0.8566866525667441
214 -0.19824257155740643 -0.20471290401474368 1.3648098211703554
1018 0.03327487368351331 -0.6544525400719695 -0.6699741206970408
1017 -1.3712310032398147 -0.9984810231684537 0.46091425054832663
3817 1.3835984047323466 -1.0668864242881824 2.191693008341815
4468 -0.02233926661952529 -1.818334892091169 -0.8910053257122329
4467 0.37049314458246607 0.12959950572214032 -1.3922854742820778
1015 0.7943675146739166 -1.7573780077936696 0.820847677835958
1016 -0.19293493443876278 0.6914875130745063 -0.8119627749391897
1284 0.5411058216420396 0.2039818853732543 -0.9242646627061685
1283 -1.2223106844121976 1.9346201506473448 -0.655899454324801
1282 -1.6297558802242105 -0.04247760950595222 -1.4995177598022487
1123 -0.30417849205476416 0.4636685633097994 0.85446979854593
1124 1.0345024292035159 -1.0415632836848212 -0.4114901885656765
3816 0.5839745995686441 -0.08043304674507712 0.6750686784584515
260 0.8522738972430093 0.5121740689406308 0.6539405584074494
259 1.1768839386860486 0.6048900654602879 -1.1983317570562
258 1.959490616621763 0.15868447680379005 1.429350037729932
133 1.6679425756639314 -0.1901181097062089 1.364982044930056
132 0.21426565224210486 -0.20380276684327978 0.6733729261684217
1014 -0.011442430678312743 -0.31406670126092007 -1.2505770128735418
1121 0.7554011910560112 -1.0543783577386772 -1.1253153762565258
1122 -0.14215300644164042 1.3167172858743699 -0.47238325591137725
1119 0.0326783228268124 0.46192967824086956 -0.22247291475313208
1120 -1.2279707723845776 0.4675188399485426 1.015113741043977
4444 -0.07048621754445034 0.5593515213462654 -1.3359804439658443
4443 1.0717204909364282 0.737924124289842 -0.6195654111203596
4445 -0.7910911068548221 -0.12368853424096994 1.6883855315064378
630 0.17136627998850218 -0.0907267032027379 -0.7990098270589455
631 -0.6400774805043739 0.02551144471535069 0.3404542315246658
629 0.46164618362656906 -1.2783177904869074 -0.24122157892888824
1117 0.3471602328640517 -0.36405737265755045 -1.2072310614589998
1118 0.707859141581278 -0.0858048734102796 0.9016676402988646
4435 -0.0031798793570188416 0.21916507565166843 -1.8220536937991327
4433 0.3845445787771007 -2.3497152713401865 -0.19748865636098437
4434 1.4744088422671568 -0.23915401321503693 0.45428359748097047
4432 0.8333010185924765 0.4414231988016886 -0.6578532406076336
4431 1.6015260030133307 1.5157570814701513 -1.258527240672061
1116 -1.606277868391968 1.843075532083825 1.0238965760763703
1115 -1.7755981391588858 0.47509740050491434 1.0594921194579319
1114 -0.2413945202887084 -0.3086244279859079 -0.23912054950829043
1240 -0.584107352370683 -0.7270805685528972 1.5336533882381143
3880 -0.4980753482272374 0.14672310539025538 -0.2824020122805228
3881 1.1387944130469074 1.2150094682814148 1.2147919838583752
3882 0.10444382510744765 -0.32379446093435366 1.0087512848304312
600 -0.6278730022692804 -1.59652400809594 -1.492954812441394
599 -0.527707787776666 0.5583486278568157 0.9733983701844195
1241 0.5865914418745314 -0.3125284078569673 -1.311376789313485
1242 0.4537162447292867 -0.17351091033169563 -1.2215991333146383
1243 0.8466390609908379 0.7975924194320624 -0.5460613462456739
3570 -0.291339746939961 0.7694374046942396 -0.6730877431002077
598 -2.493587686981309 -0.690570906025078 0.7073271270517012
597 -0.7818142141822771 1.1155971962513247 -2.967074776353962
612 0.3752526015928747 0.2234265787557367 1.906416948518431
613 -1.4554459617600308 1.3918049093735148 1.3322509076162938
3572 0.7754998900542383 0.8894191842393604 -0.10054613418483599
3573 -0.6552563378390922 0.7769004094083768 -0.7298030857806838
3571 -1.323041984721436 1.7858587328211732 1.3927111953358597
614 -0.05021733352771199 0.009506827905842313 0.16716527645981133
1096 -0.9092842289900572 1.0948029806451984 0.6463014414035491
1097 -0.7505833226834367 -0.23226423275926233 1.7753403693333867
3897 -0.9927613528378282 0.826639272255857 0.3620216476558048
3898 0.15588962474332993 -0.4042559561576395 -0.2992335194313154
727 1.556943757131684 -0.39171491228289534 -0.029034537287264794
726 0.2518088521111432 0.0340682706161145 -0.29004143125699333
4527 -0.7870555609470508 1.034169748675947 -0.13162299772223368
3640 1.5596733065999577 2.5751369015912076 -0.4295415461621699
3641 -1.0607166739238991 0.2516553078630994 -0.9661078928880376
3899 1.6502025116729395 1.2192012553205318 0.5813041410074118
718 0.5557087887341637 0.7213114757819985 -0.5942226813262903
717 0.6668320377059307 0.3641329245827289 1.2139590431227998
784 -0.08384634363160975 0.1832384806911371 -2.6057826457946325
782 1.2014332251465654 -0.3565731594510184 -1.9333825415724484
783 0.4163672500477415 -0.029297100915952015 1.3369169764562505
4528 0.7248418555400125 -0.8673245159211809 0.44497085781883733
3639 0.6615069612015687 -0.7754400480075261 0.37285184123814674
3638 -0.7199810056384539 1.7600525250043177 -1.1604914567003302
781 1.0190908132723842 -2.710594312839361 -0.08222668122186078
3636 -0.8215883353076381 0.3753595243784783 1.5119083713528276
3637 -0.3592679956748689 0.5767143976083315 -2.399599346114544
3635 1.4725632574290821 0.23644300014051245 0.5566192049476922
3634 0.7721735438448794 -0.13514226070937438 1.7334133814816814
3745 -0.5320991523700292 -0.8234980340657417 0.08111081474442856
3744 1.1652069733724129 -2.0009534958888615 -0.7296128447607618
3743 0.32969464833037154 0.878105517560639 -0.07998662300778958
3544 -0.6432441627005603 1.1770047576920886 1.3292224786131792
3543 -0.1595346993862466 0.3782169552241016 -0.7812220277354749
3542 -0.024137217824858254 -0.7728284105833717 -0.7413828094857354
3184 1.0976201859858155 0.07655335923300896 1.2480372707317866
3183 -0.13916442502846726 -0.43768159550514657 -0.46872361558636405
3632 0.26067113087977056 -1.274136105539176 1.0229157106394933
3633 0.6316635758992645 0.721195367492053 1.124682408248758
1347 -1.1893160798513573 1.0962619192770497 0.8302885742633214
3630 -0.842936332531327 -0.22316313700834212 0.07416358228383199
3631 -0.23561908350873817 1.1921034867611062 1.5627973485474764
3351 -0.8951924686049842 -1.5056794636764559 -0.42101221939383043
1348 0.31579822432848437 0.18891514202200949 -0.0653600459078571
1350 -0.11522141820008769 -1.4313246345067874 0.6622785680559087
1349 -0.20949857903257357 0.9053792739756706 1.772118291635762
2940 0.7164849166953069 -1.6736827402818546 -0.5320786509957292
2942 -0.7639058621279577 -1.4616220582125845 -0.5882208433568539
2941 -0.7599980884353399 -1.1003427045073604 -0.12894789617512287
3665 -0.017028722477383768 -0.024848056136196676 0.14267085002519167
3629 0.8938964442097738 -0.08983425494557887 1.0965796165535155
3628 1.1501475482242178 -0.37814543809916285 0.22332256756593355
3352 -0.40958462112258226 -3.156262457779611 -0.1385373696383853
3353 -1.036043988935969 1.4175033995090969 -0.9262900914777665
821 -1.0040200059243993 2.1239868723253745 -1.79805464956147
822 0.5199456578719077 0.39235408680746964 0.7395553584732997
3667 0.18963365989356018 -0.797023400296706 0.03836260546279738
3666 -0.5291669341776246 0.8858789361573101 2.017707137922454
4021 -0.46312787613774364 0.14394439742709841 -0.8876244314608996
4022 0.33584395571929393 -0.7064118385044098 -1.9285703837472354
3627 -0.42423830691732867 -0.6458937467631114 -0.9648747515416484
3355 0.6122083977238073 -0.34433740450630124 -2.110224741581518
3354 0.2829250937250407 1.1557736218389287 -1.0857147698575607
4886 0.6058101587580722 0.6209184466077562 0.004351074247298664
4885 -0.3282628363143517 0.25097197500157653 0.6680614322289871
3314 0.5831672412827202 0.770837912062133 -0.17501625995767311
3313 -0.7684405207313739 -0.7153332840968623 0.9550153732960612
3312 -0.3882724215949726 0.7866248600102863 1.6835587949914526
3311 -1.0621596276735388 0.8128297189347625 -1.3583967009253837
3668 0.6433856063404637 -0.22017225434517992 1.3914980898641822
3670 0.8940988541607833 1.320204311914416 -0.9383068097292946
3669 0.8926817770678027 0.6466936255102235 0.21992233857576723
3356 -0.040665120130886356 0.34033411043994216 -0.07338949958450561
3357 -1.2437355044607041 -1.5058842344947112 0.05249223167151798
3358 -0.5172573012627029 0.6690474065050137 -0.8484873316589181
3359 -1.6464010593540988 -0.30627620967619784 -0.5514636714925956
3360 -1.7658035518824722 -0.9708801811538911 0.21444140419839908
3326 -0.858230582873102 0.2157509533032917 1.9904960367475817
3325 -0.3467299375457454 1.2693465325457138 0.41907681825215193
3703 -0.26272878829815666 1.1086426598218189 -1.686141549756283
3704 0.4999398939950295 1.2473213779301937 2.3904177153137263
3361 0.4748858151549631 0.4984644914539281 0.36305246334718566
3362 1.1699538618448266 0.43360024856699414 -2.6911040082026045
4905 -0.7434334819679593 -0.7142976712185245 1.0650741875033645
4906 1.183784733621338 0.269633100778484 0.48805340617471027
3328 -0.05599324716726081 -0.294642244381495 0.15071078675044097
3327 -2.2547325173270694 0.8790130190893038 0.23098241042948525
3276 -0.9443770797872245 0.8215851552330333 1.296052448382701
3277 0.2932211106068377 -2.3630010434520234 0.602011091550174
3676 -0.3855562606767249 -0.23692404203100537 -0.08836193290166705
3007 -1.4583016598644438 -0.9098963411195092 -0.12635187877672496
3008 -1.7667948696432412 0.10675212975032576 -0.9797845316033211
3009 0.34619086897842943 1.3128778287685718 -0.06824561621058865
3677 -0.6141110775248424 0.4882363961977099 -0.20522691856245168
3678 -0.3745460978518673 1.3491034414024885 0.8442562419177021
4387 0.3838291497873914 -1.5810031368369872 -1.3239733394224729
4388 -0.4995426080400022 0.5791054320992371 -0.17116174992501024
4386 1.482113096759129 0.24473243780792525 -0.64543706575919
3295 -0.6798665102796136 1.9884585056378714 0.45867478900362696
3294 -0.27901124572113856 0.3947626798087198 0.26440415620107016
4383 0.22657395057211463 0.6293542723309313 -0.33001883474814997
4382 -0.327325464652246 -0.5390576639790725 -0.23152530610794816
1187 -0.7570095478059952 -0.14479167703059206 -1.1730691633480614
1186 0.616403187657401 1.4739924198728351 -0.35979906883430834
1185 2.371610460537474 2.1093530856286935 1.6454821146317111
1184 0.8167786387793508 1.403159456923839 -2.476282125830298
3684 0.4525544791491125 0.19312001224986133 -0.222261319303956
3685 -0.15375620921358069 1.9698293850135473 -0.46740375304106996
3686 -0.007684220049424345 -0.49452241662769914 0.27915938604211293
3687 -0.14111631837827132 1.9066335265426992 -0.8946797449355917
243 0.03050558607195042 -0.044803728735048544 -0.002384736322413407
242 -0.36921510502483645 0.4864753143509487 0.8288463205386486
924 0.06690266147896501 0.668330965943002 0.337545029472585
923 -0.6048299480605036 0.4879753704643213 -0.48613005981023316
922 -0.1412447582957545 0.3491695909287623 0.30227945813840623
921 -0.22431053275721496 -0.1832104308441991 0.3961129461240367
241 1.7958380042565956 0.6488558664373534 0.03605612215950493
240 0.1536357700438331 0.3363505832496559 -0.6574233525483237
216 -0.48400536661998617 -0.5143678188542374 0.663023664836032
217 0.3682536358133096 -0.5397603818329855 0.9110684633966916
239 0.3251872755214834 1.2429319093214488 0.9845233190736533
238 0.20536451367919786 -1.2863559170146281 -1.2901900848051515
237 -0.41342064157139335 0.21066826238330488 -0.8192104609875241
236 0.4034943057171052 -0.2318002328808797 -0.5046684288253706
1127 0.7308484730694159 1.7082859449985976 -1.5883580892031182
1126 -0.5258947225335017 0.8505095097741957 0.1956312227655681
1125 0.5901411178123719 -0.24748031589674777 0.32940707617391485
3820 1.2350984505833753 0.7985103006229064 -1.02454067196467
3819 -0.27519345381330357 -1.9599597591136702 0.9317574325545694
3818 -0.26124373667551615 1.450134230503357 0.32887473546565427
4466 -0.2836935249617863 -1.3923275416845073 1.9630912246350622
4465 0.32803674598927596 1.8613562521536573 1.65364601467926
4464 0.7787585157469641 0.7421274939436799 -0.6961775022942615
131 -0.4414391402412058 -1.0151666628970193 -0.5466342042108479
130 0.6474347156338208 0.37694638951470044 0.21993927328126328
235 -0.19555465971836217 2.009220720262118 0.45307844085712
889 0.4651193171568808 -0.5654262517778531 0.2777121269701016
1281 0.7002477212568767 2.6224786574874477 0.0026691533097680242
261 0.28355167731057185 -2.3850338542608642 0.6334889790509335
262 -0.14536612469104065 0.372644937247383 -0.6834722962316339
886 -0.4392743999233414 2.1929490998542307 0.06551094270139572
887 -1.1238257423842977 0.9051696387208803 0.860172275628574
888 -0.8461003778693771 -0.5385518377758883 -0.046914483297827936
1280 0.9591151473685492 0.2782294509958886 -0.0932476901336114
1279 -0.5664721957787969 0.6182223696661577 1.5370774320413516
877 1.1510647059478574 0.24107759065671752 -0.05448002501600102
878 -0.5299123287026692 -0.36575891123984816 -1.476870845070608
879 -0.8574539725096881 1.156502162497043 0.36186925283642557
880 0.84434270614856 1.9534892398010024 -0.7661732804168826
881 2.0119777970657533 0.6566076426763877 -0.4225437598017161
883 -0.4787154585133299 1.3469186660435872 -0.8471831952033141
882 0.3656115393519236 0.7031343867494354 -1.2273768140068073
885 -0.16841548948646845 -0.10657084893188085 -0.540793369108033
884 -0.6501508432141705 -1.1406278567717152 -0.8029319314837822
4442 0.5351416192226924 -1.1247476165999748 1.445941585971797
4441 1.0870039655726143 -1.803651320376597 1.2730964869095607
4439 0.5148476025131249 0.40545347971371204 -0.2265390732480481
4440 -0.3127909875341824 0.3268760561679902 -0.8430001730068338
4437 1.2902613203315094 -0.01033882600894831 0.05265300744840967
4438 -0.925334242137877 -0.21664294868494324 -0.021160205583080724
4436 1.48420756866257 0.13141111166714198 -2.197801052109932
2150 -2.463148455373853 0.17943884600522897 1.1812187511719014
3561 -1.0133187375118138 -1.259141999990333 -0.5537716670837404
3560 2.158990527637877 -1.094425907486695 0.46906535125524423
3559 -0.9890379723608127 -0.2907204962465634 1.0857357026525982
3558 -0.47311902871784073 1.2959429491778651 -0.6333336862237213
627 1.5243190084011875 1.7033232502129287 -0.3946323362711778
628 0.4956854980442133 1.86491427536385 0.809872249243732
626 -0.6882372528658215 0.47222488094951065 -0.7042265052221857
3564 -0.40265589182534184 -0.8170759597899059 -0.0019510799854301694
3563 0.39283849631522394 0.04828626519359086 1.3109987000471404
3562 0.8140366126161224 -1.5574509735852733 1.8347494094357302
1113 1.8953359555000402 -0.24785973143791284 0.024620204343656082
1112 1.238979645840191 -1.66775467466658 0.7092035683974761
3879 0.14698509542063626 0.9404862283310647 -0.9931909080580137
3878 -0.057188612689301685 1.4022051325652334 1.1594964572513133
3566 0.638049672619986 1.9431050913459718 0.11940802639245227
3567 1.2020131023048757 0.21096525440776337 0.08914808610963693
3565 -0.10606080151075808 -0.36361504647721143 0.5862963638958743
1111 -1.937496347932248 0.2398714159454925 1.9211152655506685
1110 2.1525702645000355 -0.005988346698653502 0.013805297637873665
1245 -1.8776014423285838 0.3854699081198343 -1.9735311557106425
1244 0.11197226950583755 0.09154835254780785 0.07327202561531412
3569 -0.511236312210501 -1.0471072332406972 0.3177712831079463
3568 1.1940338865983011 0.04046554063969693 0.14913290209949165
596 0.06749665378772926 -0.3520221155921743 1.0394383150737905
618 0.4782076347005476 -0.06277748104900088 -0.011835140353810503
1108 0.9075627378829719 0.6466812803585287 -0.05610200218287899
1109 -0.38544716872506135 1.4667133608975795 1.5062527845513882
1246 -0.2948378462339973 -1.6925533630321112 -1.0511160214306825
1247 -0.5105210205662476 -0.07771697180353063 2.2123525765462326
1248 1.5337117752429104 0.46864693511584504 2.3416641135113423
1249 0.29096303931895035 -0.5212317370673748 1.2870937323319425
3645 2.2810850772398013 -0.01156712268541285 -1.4918260651461934
3646 2.5352862282949484 -0.3333553827756234 -0.5973832333933558
595 0.7456812400099411 -0.8504510360326291 0.18902117892604467
594 0.22966563801004744 0.5994229729637284 0.8981488238196452
593 -1.8517974793898393 1.3879636458406683 0.2052505484109001
592 -1.7799915363137018 -0.8905047458170119 1.212910068443328
615 -0.5493753784428692 0.6909579990011963 -1.829871505102995
616 -0.3027721006245918 1.5888979734463669 0.8169476393911599
617 0.6588492369334856 -0.7713974304466819 -1.071834753938623
1106 1.0132999062240269 -0.21476463980661362 0.8787712930362793
1107 0.42916466655414126 -1.014021595904686 -0.3836547884938067
1098 0.39909950299717234 2.6264015610929587 0.3839229434782504
1250 0.2044229962767666 1.1123180564560582 -1.6623543393581244
3642 1.2529842380533613 1.515603666901518 -0.7957580308288079
3644 0.4303814523293731 1.6181720309715077 1.9098790280109912
3643 0.6137265919440871 0.04226476001174129 -0.7712026875720405
725 -1.0041020100051161 0.0849373657566966 -1.0047007728047719
724 1.7498222796124 -1.2628139310651503 2.5427893043746375
591 -1.3018000770555147 0.16801611522079501 0.22776000008285052
785 0.1041734491195625 -1.6583296575256976 -0.7018749893640943
786 0.22069483931620185 0.5335797539280567 -0.3110483890602254
1105 0.8229092055310632 1.344939236161743 -0.27026302466291485
1099 -1.0177885941723417 0.053930704843508606 -0.3953902424697143
1100 -0.18439383598914896 0.45685305862858144 0.5300500439076234
3900 -0.6062395969005056 0.3942998624432283 0.6562805833347084
723 -1.118624415578975 0.5078986103552281 1.5813437217745605
722 -0.3694071884768006 -0.5965143806123747 -0.7251444759243522
721 -0.7204467471166093 -0.49673792793844834 0.4422678165527696
719 -0.7591054328407603 -0.45823872786853775 0.4309305740787238
720 0.478905308767391 1.0079364813884018 -1.9621002428077605
1253 -0.06329009654308826 0.5923314463087226 -0.10961854999305973
4529 0.9205746200959318 -0.038435662590545455 0.4244272102831723
4530 -1.8899697036367245 1.3397064466828015 -1.6126699177470627
1252 1.0372345766845807 -0.25253860343132695 -0.17965768620623312
1335 -0.6481304561121601 -0.9244034840008968 0.29294541247417827
1251 -0.9633684007275236 0.3687420488662019 0.20326007981693214
3546 0.6773942243566751 -0.3114168443586949 1.6682113637187668
3545 0.4502279678871901 2.391373465966801 -0.8578626649832466
1338 1.6356331098201022 -1.3007722863940676 -0.6324377829811454
1336 -0.3323653442670321 -0.4434801213980967 1.1914649678414704
1337 -2.1302734528014717 -2.323714671708385 -0.15100249943251148
3181 0.23618500981271467 -0.4317358779120881 -0.09747726716859767
3182 0.6163838434610247 -0.9649591501196835 -0.028782169265037516
3742 -1.3050772613430641 -0.7341016714799715 0.8504871255846322
3741 0.6617916704036122 0.38376083019038587 -0.2795703134932933
3740 -0.9531592235056608 0.02041261119191103 0.9221898353289216
1346 -1.2145009131708522 1.449642074171522 -0.11006538441233349
1345 1.1227014824629002 1.006449321868534 -0.3282650219980705
1344 0.45015326178916976 0.6497116514839629 -0.40321668632464236
1343 -0.196754592152051 -1.0175014483589986 -0.04317514936567936
1342 0.18037168082669358 -1.3760336955131605 -0.442044722391555
1341 0.036549445355992555 1.232576493198181 0.7231242028343142
1340 -1.2855095868837991 -0.11375485572537587 0.856935110800502
1339 -1.9223802813789015 -1.2856348951316756 0.4495308199708008
2938 -0.32392091926142064 1.233110977353125 1.241500594135568
2939 0.28660980539286274 -0.3521151825328404 1.886149557228502
3662 -0.49264743047134685 0.8628546248751813 -1.5521625877270504
3661 -1.8299038613259264 -0.8326657584411994 -0.15413622506488647
3739 1.278735962979606 0.6071952996250919 0.14165431296469472
3738 0.7052194818836649 -2.0041077342839797 0.216692525572101
1351 0.7334224346535402 -0.37738953619502336 -0.14410314194789967
3663 0.34960939339495267 0.49593607410394536 -0.36564300481916223
3664 -0.8446992601881853 0.2777285849594787 0.04147256471302437
3737 -0.699751176538127 0.45924167045582753 0.17872333154503894
3736 1.0654355176875865 -0.06222801924128632 -0.39130182951857345
4023 -0.7293152279073947 -0.3959024040246385 -0.26865449550883164
4884 1.0877102060132977 0.5969073609393162 0.83335141705839
4883 -1.0990355927712216 0.3898494732049306 0.6525712217802505
823 0.025411967229664684 -0.23511754475096813 -1.522956162958912
824 0.1475379659095089 -0.37753308780957173 -0.12456705592415998
825 0.17445521863805036 -2.302919676427594 -0.272661504502513
3310 -0.18942895410806637 0.6015614284514414 -1.7859163500437534
3309 -0.058058283408787104 -0.5004277207746072 -0.3947402051011088
3308 -0.5745802690461435 -0.20557749221444338 0.0507102031570181
4024 0.13039348315034122 0.10581987581197286 -0.12382726485051632
4025 0.4689907169181581 -0.16049046302890044 0.43656322716479234
4026 0.26678431190822105 0.21118433527613195 -0.274448332016522
2916 0.727975966292105 -0.04467925154903826 -1.0466046472995738
2915 1.0504949050206585 0.3893912114624801 -0.5384054307223114
2914 0.8343180599003873 -0.096689076217922 0.8345231003605592
2913 -1.539464250333301 1.1675868342077185 -0.22635705295182343
3015 0.5943826418431603 1.2113082125432122 -1.619095307999522
3705 1.1418989514075066 -0.21325238162723859 0.5323818546414711
3706 -1.7112740508320545 -0.5405123658275487 0.7075590572546564
4904 -0.5732050720978561 -0.04904321547821694 0.6708444678225521
4903 -1.7866322494638116 0.23096019965587897 -0.8907313096831461
4902 -1.766008196418893 -0.6023911827692622 -1.7109502163985097
3331 -1.4228927864134735 0.15162763375957497 -1.2806921403674054
3329 1.015800121669856 -0.24346252450124353 -0.1341750283030701
3330 0.4865607763916611 -1.2902616616774782 1.3181122052781276
3279 -0.4993233033241156 -0.929707495316481 0.2744404196700395
3280 -2.0642183621451338 0.2730582759376325 -0.1537904966948651
3278 -1.3967747465357903 0.25995589941833785 -1.4840230773696004
4390 0.3520994450259177 0.31880791271292863 0.7648193719658181
3010 -0.22099929020360054 0.061962860486506205 -0.2647891486355357
3011 0.22190262488806883 1.4352757779033853 -1.6242749928522793
3012 1.2851646419560834 1.0825149611915388 0.7933990309584922
3014 0.13927469891196856 0.3232857674779858 0.4469959390445588
3013 0.2970819840152691 -0.8396916019055718 1.7020544984568722
4389 0.5580796977779588 -1.1536936634061423 -1.411206734160956
4381 -0.5196267043701221 -3.0954201555391974 -0.29714648482183714
4380 0.9029738007114299 -0.09691608596319559 -0.43846557961736166
4379 -1.9438895462906198 -1.304697028704883 0.2517131068365192
3293 0.187329321607992 0.042037881789720316 -0.022025361453207305
3292 -0.05591994048579188 -1.087738730314893 1.8964214362684424
916 2.02033427749594 -2.2372808165940103 0.28326130914720765
1182 2.1388320737148625 -1.090192959350183 -0.3570540721777914
1183 -1.7084591583897069 -0.38233821792006795 -1.3126842272196464
3688 -1.3533420382155805 0.27570946424206955 -0.2782100776834097
3689 1.8345137684533994 -1.4019411501012853 -0.3475187275269968
276 0.2409577460762958 0.6870418670373603 -0.5055535237260629
278 -0.13447992637264783 -0.045486078482675024 0.7361302989315146
277 -1.0838793915746772 -0.6773750590129222 -0.2308865550977841
920 0.2428601895000317 1.2669138113268659 1.2597300861874785
919 0.08830785812371343 -1.4414546325254554 1.6527114607047013
918 1.4531536612030507 -1.0603135551548089 -0.2635123798361132
917 -1.085230130546463 0.3699248587224484 0.8297125423466505
218 2.126553291614889 -1.3789516669154724 0.7777509428076267
219 -0.9423487465724467 0.14565960873799388 0.7234393295086163
1129 -0.10477323622545939 0.21899530126099423 0.7477605501615242
1128 0.23099985438700193 2.442282003483492 -0.37634837340771854
3822 -0.18532119110024436 0.36540897371225767 0.13065461460114114
3823 0.4964383939615079 -1.9975448017938127 -1.0584187083125836
3821 -0.8030676329120697 -0.0074898579971806045 -0.6527276356892759
128 -1.2365998631799269 -0.9292174486617594 0.3893011215742488
129 0.5962714036537305 -1.5362984888015856 -1.1899217037622214
127 -0.4720415064404182 -1.3815322976039197 0.13138632885731807
234 0.49172147606862937 0.40859309200428795 -0.21970943614649213
233 -1.243146086768241 0.6963639020218666 -0.09293932291430303
232 -1.0052811000006687 -0.8670500041122968 1.6061754255115765
231 0.9617763578892312 -0.8025166090954641 -0.15326974251000353
230 -0.5692256087136818 0.1680972566587568 -0.2494382454804283
229 -0.042313395793793424 -0.3937943449499612 -0.1673765781907427
890 0.19737605923856505 0.8885897155093291 -2.5410797772691485
891 0.1338888018454249 1.146599256132623 1.0283902201850954
892 -1.599123685967024 0.7915417692305601 1.27850223225781
893 2.0892436367146914 -0.18366139777804733 0.627923993706637
894 -0.2582271684717003 -0.22243886733987736 1.0066763338615181
4463 1.4765310726895908 0.2653759524633089 -0.4776931495126634
4462 0.5833020243306692 -1.2213531071230717 -0.13877875559188677
4461 -0.7895937111189425 -0.60625445412956 -0.4218515239265527
264 -0.7087244771204322 -0.015216015941513311 1.1339036021907152
1278 -1.1794049396958337 -0.4787801982568387 0.6879441211107649
4460 0.3519775891033448 0.16360276628060805 0.41600151889524095
263 0.017101606587227952 -0.09297372074401686 -0.6899861723862244
873 0.24276245167162136 0.2698670569085306 0.08304277418321271
874 0.10480375966380712 0.4716154392724772 -0.47360312821514305
876 -0.3859577490645509 0.16309968303617253 0.45411820799827385
875 -1.3459673090853594 -0.17631847863205447 0.9633993668992044
1277 -2.4104978274505933 0.463877941116805 0.6873565561217655
1276 -1.044535981876245 0.4013291698221605 0.6323326279889079
321 1.2629009579927672 -0.5156938276739571 0.47075158284955815
2149 2.185631551573009 -0.5436320130067103 0.5289272058132772
2148 -0.07950465419539161 -0.14305882575153991 -0.9016584746415421
2147 1.8903096827192707 -1.1068269572200484 -0.36798368905606027
3557 0.35398895710432865 -2.2463524164017534 -0.9310003192122716
3554 -0.010380563638412332 -0.09534644682169088 1.4206659918422568
3556 -0.7368288324131461 1.2638771641516693 -0.9958284400873578
3555 -0.4107702675215482 0.2924486871764965 -0.5642417341111566
624 1.317855386257555 -1.7841203118426197 1.5513758885166993
625 0.908472014490494 0.3938223642135935 -1.460973680130506
622 -0.6255325092117667 -1.293558297911561 -0.5729091195846497
623 -2.5144736213080687 0.6720507095651413 -0.9668781931659575
3877 0.47431449960297556 -0.565815170677662 -0.04812661206387031
3876 -0.7105521379065423 -2.259839796526795 -1.560328308111192
3648 -0.5588796942346659 1.103223797501646 0.2196563422037537
3649 -0.6047683052292846 0.08240279400591291 2.051640454158496
3650 -0.07113508460588339 0.8502500055903115 -0.3379975129641609
3937 1.050174418916883 -0.8385333664245378 0.4938328900853338
3936 -0.9791083412755681 1.2382889414136755 1.4365992117173763
3938 -0.3099446593526266 0.2659947471862389 -0.3881344178511341
619 -0.17136441320476664 1.73775980905053 -1.9418406628241394
620 -0.20152924055512797 -0.8899277835296973 -1.5316301411070488
621 0.126814342324297 -0.4038733551848502 -2.2709010230026885
3647 0.5042362783529446 -0.6617623088966473 1.5575681662733118
3935 -0.42372084878727956 -0.7168797081780689 0.807484340196897
3928 0.7542717307589957 -0.3178647049869513 -0.11035479381077012
3927 0.25705097425963297 2.2681400082912835 1.5407972861147137
590 -1.5420192443766274 -1.897026355234587 1.3242061685706878
589 -0.9114685283858596 0.500676356102923 -0.2503808295564143
787 -0.28222519981731864 0.17854352223842848 -1.117044505207764
788 -1.5617370893897036 -0.07410339553821838 -0.9974192390430036
1104 -0.5524524092634984 -1.3343951957089606 1.3592510033439615
1255 0.7359780321615805 1.4585048454074316 -1.4695520948484337
1256 0.41475432967357806 -0.917399268695483 -2.3840945907398283
3925 -0.5288955491994045 -1.4999061596416525 -0.1188970999407914
3926 -0.8311900149141056 -0.5239887873530817 -0.024909864363610784
3924 1.3978612252077607 -1.2822118108515204 1.7284143409433192
587 2.5748924221686686 -0.3475580097528033 1.0070254075720895
588 -1.6366551501272273 0.378559058119126 0.9084011010682178
586 1.8088047670670777 0.5070081674601056 -0.3857682617754685
1101 -1.6927206936094181 0.549620297318602 -3.6897573894113567
1102 -0.15264970494379362 1.3869060051754174 0.23930316104522295
1103 -3.022296503806912 0.5895651672631635 0.10678590948558256
1254 -0.17352608119002377 0.21117311382993403 0.16889171634903868
4531 0.9680330106526918 0.0418850561001249 1.4940786828264685
4532 0.2695817081491572 0.13958693664224617 0.025124152935508903
4533 -1.2677792779008417 2.128789342836486 0.8598443398943383
3652 2.34955496623633 -1.72751289357486 -1.0510707403461201
3651 -0.7330633905569001 0.35852630305465366 1.4881656024778624
3923 -0.29094622704600814 0.032186884576483665 -0.31083388765597375
3922 -1.0369992288247216 -0.6284427019064283 0.48564476236542303
585 -0.8591567696038424 1.7357117426793924 0.0675690344245776
584 -1.2005970516037876 1.0199672093363483 -0.23063186502647606
583 -0.5531967888049736 0.32307477579203886 0.9881061726598168
582 0.38449402367503327 -0.31286655302160704 0.01239901987435782
1333 -0.3089861156168166 -0.5863327813656478 1.4544908698190642
1331 -0.3103492732484005 0.6704340953679326 1.292070491910233
1332 -1.184963603137597 -0.8895819081663938 0.03593576963730651
3654 1.1616052698279367 0.06502734188157075 -0.903939185726625
3653 0.14668789647347036 -0.7282762731769582 0.20773716213592383
3919 0.9141889729366223 0.4912297262002619 -0.21125449565890508
3920 -1.2518900472604457 -0.5062767413521699 -0.06347025582778879
3921 0.23918433734541988 1.6318517427226458 0.39166787872687814
581 0.197795449140264 -0.9525582387854699 -0.4799561728506197
580 0.6586053429996925 -0.30600553690301385 0.8473167597562206
579 -0.37119986964000173 -0.8421177295240582 0.8956765414565707
578 0.4260045966240734 -0.3300061569121323 -0.5203044385329176
577 0.2946512578151546 -1.1200262421574745 -0.1795103975095355
576 0.4671986396842409 0.050260975701042605 0.6237889100958599
575 -0.30038551910350164 0.045008995296901444 -0.8410232080451951
574 1.0099290280068578 0.4617691346296794 -0.44060085590506626
573 2.288136401613427 -0.9144158601738099 1.0482661241732891
1334 0.08376673321075359 0.7018276263168068 -0.9525548053339423
3655 0.7995662980379874 0.2789454392356784 -0.7197867111455662
3656 -1.8607755660185405 1.7575686484276998 -0.45798469904122774
3918 -1.2580036105297345 0.494840330507934 -0.27297354127492884
3917 -1.5745112434359454 0.3460683200372392 -0.5122963119196488
3548 -1.1515968712329734 1.5369165862280225 0.034998346515123804
3547 0.2846477339060085 1.5202857181839373 1.1627667174720788
2936 0.9477912253426928 0.33781872887184267 0.09069391002127039
2935 0.8393016266934619 1.2422621624115555 0.47108225325090447
3180 2.1974605021694456 -1.3670672528453147 1.963183537075111
3179 0.14895284534151337 0.669759878632865 0.2422537048682564
3657 0.12899278797039507 -1.5651003812448063 -0.9600359773172132
3658 1.8097965424325873 0.3895261523978605 0.12792377945236705
3916 -0.8743034774525364 -0.4630044896051888 -3.625188551230323
447 0.20170502985628738 -0.17963856890768626 0.4447361363584196
446 0.7297048802907864 -1.167534177797201 -1.2711668975836221
1356 0.3188009685244365 -1.210023679548045 -0.39696076970614036
1355 0.6487803026108454 0.9114297300241941 0.9110421920891266
1354 -0.422369407932078 0.8394679550840711 -1.8862741010776904
1353 -0.7722105147046064 0.4830706268043722 0.18348159428705002
2937 -0.2798854055141163 0.6097502967393296 0.712043014353468
3660 0.660809683818423 -1.1833353752690572 1.0964602801852454
3659 -1.4030703033530387 0.23713816633921403 1.331589092149844
448 0.8019694333982637 0.6637645678255355 -1.1164972928568409
449 0.2395370717501729 -1.101274414333115 -0.2873515341974043
450 -0.16970026937147437 0.5981629414735286 -0.16372245006479458
1352 -0.8232822416938445 -0.5639158825500721 0.9438991035497755
3735 -1.4819645597937123 0.15483195990648727 0.24252396549565103
3306 -1.3207975635594063 -0.7378660034745044 0.3498944817392242
3305 1.8528067898405296 1.1853640453590293 -0.8372485256465273
3022 -0.9239079606030565 -0.0322713828456309 -2.689633080775866
3734 -0.3454535334350375 0.6138627329373756 0.8457436200440509
3733 0.477830846149328 -0.9821896154503615 0.0663721992436665
4882 -1.6070584411604671 0.3626143687200974 -0.31622216111298207
4881 0.19488163872012787 0.36820808577585706 0.2983332427929061
826 1.4847581508759868 -0.5804861685430444 -0.6901386053960485
2921 0.38744178792319994 0.8605827635065646 -0.7666917279151886
2920 -1.2178805015452423 0.8518906227898163 0.582634940453837
3307 -0.237788052986861 0.3474076524257393 1.2933454625273377
3021 0.47747614798585714 0.3019792216666666 -0.3610100437206808
3020 1.2221910855714235 0.13264413955726873 0.2851102959511247
4027 0.07075990993532519 -1.1498465490815883 -1.406143447232462
4028 0.5892148571596458 -1.082405985664139 -0.8684752585862071
4029 -0.9788652155925923 -1.7386337643493208 0.3751870432393021
4030 -0.42663737171373445 -0.48727201338613135 -1.0255779164357988
4031 -1.1957039453297964 0.6250944434410182 0.9072723631926302
4032 -0.20999334555422394 0.12705420853320176 0.03347296979836123
2918 0.8704713439470596 -0.13501118447490512 1.4428305899619462
2917 0.608582796137551 0.8434293085228648 0.4862551466457272
2919 0.40318481755357893 -1.5015194601494777 -0.6272961467010895
3019 0.4982108166772409 -1.3109849869217092 -1.277714449630984
3018 -1.4154197670622937 0.2007930392523118 -0.7185633507450669
2911 0.9879697381438028 -1.970564634570179 1.0243657535859847
2912 1.658964103143851 -0.4005946930860752 -1.3888848526215305
2909 0.04642248961387224 1.6262838551884458 -1.1787898658747284
2910 -0.9233764780872357 0.773811090986624 -0.07382028311910091
2908 -1.018521642140134 1.5989437898205698 0.17326263809225056
2907 0.06190601704231513 1.544103722214389 1.2641251222869236
3016 -0.2448812156664969 0.49880357636934697 -2.4562597298295876
3017 1.679263419228869 2.219772696703091 0.04654218539039434
3707 -0.4633027002598809 -0.4135251064686267 -0.24947729081799155
3708 0.15708485649143245 0.5844686025564333 -0.676510672631336
4901 1.2394973713507607 1.5377903465903047 0.9724711216704985
3332 0.6250470036206078 -1.1806327277945219 0.175915888753968
3333 -0.18653852769813922 1.9163955611021513 0.9166125928084926
3282 -0.2461995213044334 -2.5306134658447093 0.6886892127096498
3281 1.8475790504658156 1.766819948791741 0.4542525000731936
4391 1.0362044938696267 0.7940995540380773 0.976155905793106
4392 -1.0544404251154724 1.3686248447107228 0.2585299271699135
4393 0.6654592145326994 -0.8480522203321746 1.467806724429774
3334 -0.7687320353464869 0.08953701371434819 0.6120924058007391
4378 -0.4360278667252271 0.3537342869396266 0.1428589392231237
4377 0.5663637499144114 -0.45461788786268476 0.8872322254983127
3291 0.18987565685214522 0.6835139835243585 0.4847814849488311
3290 -1.1599033550408586 1.0102172412964476 -1.0552147946299053
1181 -0.6114711951357247 -0.15731941684310494 -0.43971375469294705
1697 -2.0986486635645942 0.8019162773520271 -1.0656998045039383
1696 -0.654363074402198 -0.006390979809625746 -0.5488166734196345
3690 -1.1458194757531845 0.011744951689838627 -0.3141030831944128
3691 0.5174746516690388 1.1608046195136017 -0.11755553068391693
281 -0.5664024394388938 -0.9483209930078984 0.46692515266899587
282 -0.4144778656251456 0.9622630875807708 -0.30631200102895073
283 -1.4636749177338102 0.9568145746124914 0.06957765329351968
284 0.0675987942474921 -0.020284561875356377 1.0827519632009308
285 -0.9945274340892587 -0.4312611303247176 -0.6457383742217261
915 1.7688938253469333 -0.15069972836710985 -1.777185223330201
914 -0.5310995338944984 -0.628157208170091 0.756811550675577
912 -1.0322275539444472 -0.30868408198832686 2.3106928828961966
913 -0.007614974306963035 0.6401470610772383 1.5758283916237237
911 0.6463821680895045 -3.138982855382631 0.1147672376254766
1179 0.06396087266000097 0.13986234162547684 -0.09640756553862265
1180 -0.3637306334094017 1.1588665544568073 0.9207017947001837
1698 -1.1828305917337365 0.5256408087764299 0.23481490967056062
1700 1.054133158512197 0.710801314904014 -2.295888930527866
1699 0.7496165926022995 -0.7202191743890659 -1.1379207429583353
275 0.835180930937208 0.9589495116590909 -1.671409105086475
280 -0.5565846718499151 0.4128777382735086 -1.4831631122036448
279 -0.21399140598866837 -1.503386004675499 -1.4023202632511784
1132 0.8677909738922505 -0.8899934567590416 -1.6910520634795374
271 -0.5819149597336943 0.3185559517302449 0.9088226688680219
274 -1.2955709582198736 0.9502939522167235 -0.670026675569501
272 -0.4547472454105935 0.63854001444695 -0.4697454192494917
273 0.538933693535649 1.1019566755639039 0.12856672696491256
220 -0.5852382980051299 -0.009851883608150258 -0.4912089416867804
221 -0.38128119815235273 0.4957801639554116 -0.9083951753096756
1131 0.8675671950770426 0.2343892982755526 -0.19639987816131477
1130 -0.5565750756875253 1.5446635476295107 -0.4458748863402867
270 -0.3241944737245401 -1.125919493648681 -0.7570685981103197
269 0.3321435809825594 0.15621203804848893 1.4099106512803115
125 1.4047024423156633 0.15340898135396197 -0.04566394477217692
126 0.2809150137718379 0.028835144877967622 0.9996035309138414
226 -1.9230836227284716 -1.2791039299196953 -1.4782325680487327
225 0.22536764220775382 -0.8463888940918904 1.856671880932156
223 0.6927471371434413 1.882041784570535 2.2836548245137824
224 1.7472226927277983 0.4872169678838693 0.5812533041182779
222 0.03889942194984655 0.9831514226463287 -0.19770017477809385
3826 -0.4999398883947854 -0.5400373654570954 -1.5297502967114185
3825 -0.27599079369291335 -0.4762538952517782 -0.3629973199955343
3824 3.4728971526244674 0.4365570351626693 -0.8728885008006478
267 0.2555282594578624 1.2853442874451901 0.2150465100385115
268 0.542422838854023 -0.6991467602809756 -0.3506342048871207
228 -0.12178488342150354 0.5467861507491213 0.7303681695634563
227 -1.2170195699612014 1.0903719243344558 0.5550520920955967
895 1.641635211975317 -0.2105140889999682 -0.6409869576183639
896 -0.16912498439009094 1.0474029966247185 -0.6391902306679001
897 -0.4006704974835936 0.9764266420751272 0.2115745159817592
266 0.6593168267769007 -0.3389331887140198 2.043167010944437
265 0.45694389842100813 0.5642073349644603 1.7538348984738972
325 0.3375089790488499 -1.3023109301415512 -1.9722175549226026
326 0.4677742330474819 -0.2640273018937767 -0.7901602049948351
324 -0.21227361652964302 -0.3098317249774307 -0.879347040439247
4458 -2.2707124643739487 0.9242776808038984 -0.3872896474871108
4459 0.8913035515448566 2.5894710074770955 0.29426154537409316
872 1.3189921509878366 -0.32455335846670597 0.5693661248235972
323 -1.8384813412965253 -0.850715520365541 1.502953254884092
322 1.5273294213451796 -0.9653353612788724 0.5902078023107774
1275 1.957449613124672 0.8170940548238046 -1.270263479437157
4456 -0.2202646793506902 0.24239454200653693 -0.3335300694295103
4457 -1.4450473561557295 1.255847799091155 0.02825870844437725
4700 -0.4795728122779756 -0.5610270801462895 0.40986848334338166
4699 0.10651873537621989 -0.5130691511232041 -0.062143658765422
4698 0.9448860840676183 0.836607125062757 -1.8764147898783965
871 -0.16656766313976487 2.5955513143444113 0.08577365700901189
317 1.5223243514339555 -0.5201819929023802 -1.7770772560607615
320 0.5586420970597911 0.769543658119761 -0.36599961052142566
319 -1.250340541679844 0.09008174984320384 -0.5486644814550969
318 0.16824627385161559 0.7983052630847561 -0.49403628212918305
2146 1.4181938236511966 0.7204209717117311 0.020452707266741893
2145 2.311072467463236 -1.0557518235614376 -0.0891624263419297
1274 -1.1136182906470453 -0.2709027884952234 0.6417929777522905
1273 1.579323810368624 -0.3491791741305219 1.3441846270546238
4454 0.7642536433214691 -0.8605786150334025 -1.18555069748382
4455 0.8649466310860958 0.8967446129445598 -0.9820946601927583
4070 -0.9489297121014287 -0.8238506860690351 0.40281248924398916
4069 0.08877623617728159 1.2461021539266668 -0.8668148535634878
4068 -1.2291743964736963 -0.6618845202727544 -1.2373699752246936
3553 0.858246572279295 -1.3419393536916842 -0.8476701425402203
3552 0.9707701516899997 1.4352089642937018 -0.4644853928653172
3551 -0.001861372449817933 -1.7034041381457097 0.7473310652316285
4452 1.1483843735104005 -0.6527112843814804 0.4979102329174615
4451 1.9024401638410808 -0.5735405195152437 0.0887176909337046
4453 -1.734288918084332 0.8448381723100276 -0.02682236384568948
4067 -0.1906285597032616 1.0950772490627136 0.17678107748888439
4066 0.4691039501226039 0.1771221962249431 0.9536656384266796
3944 -0.34022708255434714 -0.7657179313185266 -0.013799097735300705
3945 -0.25169822588364543 0.8731211001065082 -0.0627380933839328
3946 0.8241125898967772 -0.26903777607505946 -0.11404901614615075
4065 -0.873962096281616 0.5492918938845 0.5565654549213472
4064 -0.07356497886211566 1.3318473573290832 -1.7288220268865395
3939 -0.5834755581277882 -1.2858332349291932 -0.9819165115737143
3940 0.05439587906193932 0.3446819934523838 2.6469375103487085
3941 0.8411597355671504 0.4196096313023975 0.45851177100398277
3942 0.7915251750484406 1.8573760857583688 1.5843542380094569
3943 0.024468765766875594 -1.0316753828606995 -0.5971796794140208
3875 -0.49002342139055743 1.0908112986345941 -1.5973925791675148
3874 -0.3159315890837099 1.8004171380020817 -0.7901364847571156
4063 0.5585990932661985 -0.4237039575554299 1.4038389743772883
4062 -0.4583111934689692 -1.2256801423969979 -0.01736960708810574
4061 0.9165467455161487 -0.9551274003081092 1.932613012338271
1260 -0.26973941291416204 -0.05681226653105583 0.3252410885977879
3931 0.6023039924815013 -0.7689004281586488 1.0491280816425728
3932 -0.4997850940998638 -0.10688564861645206 1.4413760217060239
3933 2.1803600812762167 -0.3891781708577674 0.26127351930718096
3934 -0.12037996486455384 0.4589287626724134 -1.166169810782818
789 0.9761297985860898 -1.2927503002102014 -0.18296442360074297
790 0.18476724836833558 0.08073142408757719 -0.186484230723112
791 0.9621961345182094 -0.77251671609278 1.0900678935150403
1258 -0.8180036398328046 1.5975473759814074 0.7964975688338649
1259 -0.5484859918578611 -0.8612496046690168 -2.3861859186513055
1257 -0.03217258489703412 0.7232886630050462 -0.7719681932984297
3929 0.381379797085438 -0.39139705204332487 0.890358318190423
3930 0.11500306095938745 1.1043262084688876 -1.0125502320254185
1328 1.4052940988573113 -0.17637371909984673 -0.9918644008356068
4334 -0.724541892298788 -0.9796918522469573 1.815141115423217
4336 1.3806813635240498 0.30659382393504425 -0.0019367026416027278
4335 1.279387490981153 1.2724046461716247 -0.46159924439962696
1330 -2.3633575264169107 -0.7917310187643494 -0.556356175729837
1329 0.38521713118831735 -1.5083953072168867 -1.4118470481673033
571 0.22956692887811503 0.8136942279817065 0.8875636550385264
4534 -0.20776373811056803 0.0604362731507086 -1.8037658022510499
4535 0.9590907356629415 -0.09017311644155095 0.09114478242309927
1364 0.3016696373606288 -2.367605561759547 0.7718381037394456
1365 1.3221729616432387 1.1877474015596885 0.11793101890915492
1363 1.7415938511137734 -0.9400543984279418 -1.6808831513455114
1362 2.22993229421835 -1.8871518340703763 -1.3209298642005973
572 1.2641094223420013 -0.21128391605005287 -1.6449327831780352
1359 -0.4367843253748208 -0.7050903797575986 0.052544230616514864
1361 1.864775967654387 -1.296600137486137 -0.6572784128491388
1360 1.5469987804488463 0.0224749262283771 0.27295516961470045
1358 -0.7199695949748476 1.217795248946337 -0.34739143297352937
3549 0.40272721150625035 -0.28090653279392713 0.520705159252416
3550 -0.6359613404117244 -0.2587515893314377 1.2576479816864075
2932 1.0148452356654263 -0.4967862728719231 -0.9255411542162622
2931 -0.57622608860386 -0.5669039500840245 0.5868485617964453
2934 -1.2290033319996734 -1.5327342195055178 0.407800264045518
2933 0.7622602677185536 -0.36478661780267746 -1.1225063837263514
3178 0.5810593070218911 0.29232138141183184 0.9370528883641303
3177 1.5005422063106413 0.5900482995955302 -0.29112853518242277
3915 0.06827775533631247 -0.2933892215323079 -0.05811649160329496
444 -0.5409156854742871 0.20113044455160636 0.09234550160153485
445 0.37623942865945936 0.4532359037603387 1.0524369181155908
1357 -1.5430786979303486 -0.9962043172201165 1.686129047202646
3914 -1.1477264179578632 0.0636172051835055 -1.2449704322382784
3913 1.6271292609618215 -1.0972286564907479 -0.5193352286239318
2925 -1.1346587433522273 0.9481923224653359 1.3989161023537688
3026 -1.341859435297451 0.17516138839600703 0.5646639966470396
3025 -0.04618358095362955 0.4554357715842848 1.7219405098707226
3911 -0.7338879525614854 -1.4863147345288445 -0.038290568636879435
3912 0.9157651962244955 0.143127346813813 -0.6731454606364977
2922 -0.07405061001680899 -1.0846720545896407 -0.9959756636759877
2923 1.0579504097164174 0.5340235370547355 -1.923351305354785
2924 -0.4902918070281183 1.2763861882854004 0.9772414317620113
3304 0.6064680571654935 -1.6097063220197911 -1.765076947765389
3303 -0.6292020313467406 1.3174399099373073 0.955808264711142
3302 0.0999338611161007 -1.96963376467933 -0.2894955502377711
3023 0.8463492401496879 1.2197834072166938 0.1819779237232835
3024 -1.8097714445652748 -0.5623496358484945 0.06713246474833662
3910 0.44889593683969997 -0.16115981679562738 0.6394904121114594
4037 1.763077808657891 -0.7733565331020708 -0.4518918971592399
4038 -1.0757891954781864 0.6321192417205314 -0.5249929168512577
4880 1.5197330079111147 0.7756462651510121 -0.4112562400120274
4879 -0.0930727963430678 0.2527502353922415 0.07349692971974411
828 0.7654849678990406 1.3030983086030365 -0.24379690559054157
827 -0.3144156287988243 2.7379973800857984 -1.2051796775200665
2904 0.8249312316798715 -0.1542963214998102 -0.46210304255594353
2905 1.9612010939436495 -1.3832660088606217 -0.5934907039085905
4033 1.852424152905623 -1.6926531405395338 0.43390562655575654
4035 -0.7466798504952595 -0.21404577874490263 2.081303405424406
4034 -0.5422388981685475 1.9065125965768746 0.5400302881430026
4036 -0.023560343900856345 0.45397132853976097 1.2970678922437406
3732 -0.6166683431082256 0.9621488842825038 -0.8963295758501328
3731 1.7757159327515957 -0.4483417404676725 -0.80152545716848
2906 0.18767612094011754 -1.7500509466016705 1.8169256209945268
3730 -0.365587827836922 0.054642061236002515 -0.5639286516450842
4395 1.7546034621216657 -0.3011683676060766 -2.0904351999568855
4394 1.5381800005046933 1.58029340420851 -0.6095631881509951
3709 3.0061751924957227 -1.8738465469547578 0.23555794271041336
3710 -0.2911606096362024 -2.6559433826721266 -0.9794872632231558
3337 -1.2392275564845796 0.3851429519805347 -1.0896491216503732
3336 1.9800241486752044 -0.6442846300376777 -1.2482772084565081
3285 0.29291677664848315 -0.6045136068666112 -0.9576400460919021
3283 -0.2114151596804842 -2.114012533981054 -0.40333583164996234
3284 -0.27831338190794774 0.44910030875823376 -0.7268382304529559
901 0.5029025392098028 -0.9615701627475365 -0.9880611183610637
902 1.3121691399479989 0.3739423103614297 -0.3414866419991216
4376 -0.37501829127361874 0.15264353739030895 0.4274345400876961
4375 -0.19230461560417178 0.49815024495716603 2.0482111608669045
3335 -0.6494986306136477 -2.6233306217562986 -0.6353333117450292
3288 -0.363170639985265 -0.4573799389870988 -0.19467922552242992
3287 1.7422206990686728 0.47848511383188197 -1.735820967229746
3286 -0.3175273675770805 -0.21912766545106543 0.4559241892331424
905 0.3190324534789727 1.4593045425229212 1.2126948704462137
903 -0.24953624116784676 -0.45940500132793466 -1.156067609953711
904 -0.06523669246726199 0.032790245503366205 0.4485112288637995
2900 1.4684385502532258 -1.624724780746903 -0.7516500444024338
3289 -0.6367810994934464 -1.2814910374284167 -0.5524763905956855
910 -0.8296267940854565 0.6207559646374549 -1.4610087976589707
909 -0.15467666838241853 -1.6720516319355885 -0.9583745482457418
908 -1.044103118002357 -0.06265872555985409 -1.9827054652843443
907 1.1102991251045853 2.366365224663264 -1.0140151892011635
906 -0.5447444626375191 -0.04950681554847354 -0.3229679298853654
3693 -0.36675838309610886 -1.3089912151858574 0.2554920226544024
3692 1.292464068434993 0.02525056764720468 1.4081154587442037
286 -0.2887624994969107 -0.8330075850356053 1.942146736818287
287 0.02097223454203958 0.12907452351633722 0.5126187275878631
288 -0.029774584392555814 0.07570558728881392 0.9094804769250735
289 2.815216573666416 -0.5357603529886437 0.9849998977238499
290 -0.29215657405913925 -0.07130728178420435 -1.2998839423432118
291 -0.05983785707022521 -0.7159175618916269 0.21145266056494152
292 -0.799990355168613 0.6233708240057266 -0.8646865293451492
293 -0.4401469538371 -0.15338352941060993 0.09998662273259411
1136 -0.0023462884079460122 -0.7073134188960261 0.39918276020572246
1178 -0.15664384815338359 0.48936812998218754 0.8945914285839816
1177 1.2877704311899438 -0.46453309484945715 0.6686306680219871
1134 0.4328543344811825 -0.156662917370565 0.2990889209586032
1135 0.25438205729500873 1.4551614580273518 -0.6435044611440455
1133 -2.198764891941561 -0.551955808143744 -0.07330896022606537
122 -0.13010006126176113 -0.032774460598603866 -0.8143092693468412
123 1.5023141832226834 -0.32801438848366704 -0.41643286613072095
4715 -2.7524804129537963 0.9547533342315759 0.5863459196088759
4714 1.6971488566654278 0.21873843855396902 0.014495448148788531
3827 0.7636151862652345 0.4660433490387513 -0.8487601480703689
3828 0.11933823280765095 0.7310165832875508 0.25352479938278527
124 -0.44026113977920994 1.2632095039338767 -0.4367735972423284
4716 -0.771820649054092 -0.6317353577679328 0.049724357857968915
4717 -0.6167611957559443 0.6045312149593828 -1.2225202174989303
3851 0.1295674124198896 0.058286949533734644 -0.7546706139527625
3852 2.380714007456203 -0.8472032149827314 -0.9353731176757688
4719 0.7265569304468391 0.7654307687448987 0.4928019079754343
4718 -0.23748860598449195 -1.9466080383365396 1.5408232845268288
327 0.3649555211608832 0.7627255495767773 0.17288910404000807
328 -1.641832681902211 0.6331106021590978 -0.11261825601735623
329 0.2545725600805671 -0.1399662979677932 -0.2251696694100389
898 -0.36167237295376115 0.452065141275488 -0.08284937137408072
899 0.08447099667708616 -0.13714252274246166 -0.9249166085508548
900 -0.889946538122379 -0.17071205948074558 1.1094821096418161
4076 -1.115227149882321 1.4612689750472985 0.08776941188281304
4720 1.3009498189633688 -1.0610731909841293 -0.011925875140834513
4721 -0.66271815880132 0.0863326101002515 -1.2953841163839044
4074 0.3556825839935445 0.7189178873271774 0.7426529900943013
4075 -0.9897082243209878 -0.5187793114777698 -0.631973103378134
4073 -1.1847589843297945 0.45214677436992085 1.1731786314083048
4071 1.1466255491673205 1.6050118414781076 -0.10174996628451816
4072 -0.9750495669313659 -0.11172504875879746 0.04685579027612102
870 0.5020505712341089 -1.3903159132972243 -1.4748355616326725
869 -1.8703126231814209 2.1805734089773807 0.3014925496441331
868 0.7354012445364121 -0.06528491663349867 0.08255772207111833
314 0.29533904611686473 1.1175252151467454 0.7954826193231905
315 1.372081512098065 0.45712545692491463 1.5606883031729701
316 -2.1990456243048957 -0.25749954347055914 -0.11260000730277894
2144 -1.3311216760562363 -0.07832018702710992 0.8980398657720104
2143 -0.3425031147905379 -1.1156001698395421 -0.9757343142148659
1272 0.33322634588121575 -0.9693947707801007 0.32734812259636753
4697 0.16576538323989354 0.0005290316488963942 -0.08383849456917913
4696 1.9520260849081745 -0.41891151897529744 0.7909762526679491
3948 -2.3809646672036444 0.13164768431515714 1.3292119936185303
3949 -0.3851571534220176 0.5610490132338117 -0.9237724725208267
3950 -0.6462200017374516 0.32622134738298125 -0.3832361711911162
1271 0.8501462993515077 2.524503030283447 -1.0985228176435837
1270 0.6814215069449848 -3.0212402375172447 -0.26779861498471486
1269 0.5698957703429552 1.2795530622997304 1.3263602260002245
4695 -0.3104327859877255 -1.1868537212524564 0.3778293044356676
4694 0.9387187205028413 -1.3406330193593636 -0.3997088592073925
3947 0.9280874744263377 0.03696805490189514 1.2090530596082183
401 -0.17779834439059009 1.5982985945310324 -0.12472672434017432
402 -0.8208888603314282 1.9396841999592431 -0.6224689192271617
794 -0.038992509474641626 -0.7673264970440459 0.47527137387975926
1266 0.6601843187255971 -1.2454005475829213 -0.8271000650996311
1265 1.0364421333492309 0.9791254959652625 -1.4299021650124375
1264 0.717955159995737 -0.8515445700212916 -0.1632648883972565
3873 -0.39380770676230853 0.7727527942671675 -1.9283985240213197
3872 0.5575956849819061 -0.5747802969697305 0.7532733474191131
525 -1.8231257403429075 0.8676071282018072 0.12356801010403579
527 0.7861131357494395 0.918265300627195 -0.754133212785044
526 0.9570187135221736 1.709161060341677 0.5056473405453412
528 -0.6503159394092476 -1.0425507507740008 0.16024096155326545
529 0.12614319213784764 0.8128897944017003 0.3508571267594137
530 1.1978906462956511 -1.2539901198101342 -1.3916144947724243
531 0.9147331770121871 -1.1119240451676042 0.14680650641251855
532 -0.21298073702793863 0.8159272768624937 -0.12760938241783992
792 0.004419959125248929 -0.8180505860816738 -0.061110615006779195
793 -2.58043680817652 0.9085519141668448 -1.1950850820070626
1262 0.6669766784285225 -2.0947419364332247 -0.7628247818160864
1263 -0.22138991017579063 2.154286395504299 0.8752670301157233
1261 -0.6952512755821043 0.3920947936950612 -0.29050559008817156
4060 -0.531065670557794 -0.8228343535207604 0.708764997163535
4059 0.49798035103836974 0.20909506420139407 1.2153513413987234
550 0.12401780117446624 0.23054243101803373 -0.3861057148701583
549 -0.8970319959601304 0.17047487664663036 1.9610365685189795
4331 0.6676837483690408 -1.7477637291314874 2.420393784942388
4058 -0.0742426007577911 -0.6783340976858636 -1.4526697362465375
4057 0.5980439987360651 -0.1497967912566698 -0.09682627456298785
548 -0.8955144664033403 0.8691196337297468 1.5838913229308536
547 0.030360625801602075 0.09262406905251588 1.0745508285520864
1325 0.29308607015170873 -0.4944159876288081 -0.19529426133775085
1327 0.9655915415403098 0.8051320421946115 1.2857307195285863
1326 -0.09006806356035243 -0.0012997140607903523 1.2231673302396981
4332 -1.3605071507617335 -0.6532852635283289 -0.8217742162237884
4333 -0.7447982173371088 1.946111339840257 -0.2933796066709926
1369 0.7109554522870885 0.6528261718279355 0.9251124455810323
1368 -0.7437048285582257 -0.5647236369441924 -1.1942541483183529
4337 -0.07981399999701666 0.437096884133112 -1.689710755539731
4338 0.8104575813367315 1.346032311451205 -0.3324219553513203
1366 0.4899778428382886 0.2998413179623694 -0.36082968180576114
1367 -0.34113841779968823 -2.7863521246126446 0.5855998438299806
569 0.4473266652037342 0.8463838919038699 0.3138971780715726
570 0.5739007975704469 2.192819717607062 -0.26236564745006763
568 -1.1069793730251907 -0.42184500276806647 0.171481850459334
4536 0.7187730720021471 -1.2521056026395776 -1.592643305505812
4537 -0.5497691194632147 0.7056445659455539 -0.8306494817619505
4339 0.2008470982882543 0.23450351201525838 -0.35960295296103
4340 -0.10955881956622374 0.2944925317457476 0.4050674209365653
3031 0.48122955506094744 0.2070736525290008 0.7762805885423041
3032 0.05381500942611036 -0.4420171753588221 1.1234666499008659
3033 -0.7648842898470618 0.523524096487137 -1.1799844578625578
4538 -0.42176365888741746 1.2099832977061449 0.17134769491461826
4341 -1.4149100484159842 0.715194383104609 0.7493821623725754
4342 -1.1253314660705818 -0.4148798072285039 -0.3928329531610408
443 0.02312649090673775 -0.7542642068498683 -0.47079760863621867
442 -0.39658492906266163 -2.6154312756643225 0.24564099932644667
441 -0.4464646972165165 1.3824197330386327 -0.36956671102910593
3176 1.0570421725388086 1.116916304196051 2.200888974774391
3175 -0.38547962777438555 -0.6087670796823188 -0.16497969656486955
3030 0.14545626153013996 -0.6711508770756222 -0.06825327837081543
3029 -1.2282333626771487 -0.10006504498563351 0.5538010892682994
4343 0.23704591330958066 1.2330951549511056 -1.1284859858142438
4344 1.2832545483162496 -0.3420432908706309 0.8785281917554874
4044 -0.4076937400875814 0.5071191156183961 -1.466733539710669
4045 -0.894614261712241 -0.5292041507195735 1.1424481707082887
1758 0.4858335309319957 1.4851681901520277 -0.3191074673885695
1757 -0.24415654169188053 -0.08058070754905915 -2.0083946101646566
2928 0.18219477949332397 -2.695202240265352 -0.5084244766269889
2927 -0.88907434276756 0.4250350519888538 1.7315874162990081
2929 2.494062114190043 -0.27504491635629624 -0.913181131858934
2930 1.8258733357412256 0.24881210600882397 0.05216324284946286
3027 0.5347575924673043 -1.43058361165041 -0.35123759343115535
3028 -4.080728139511579 0.7199424383310333 1.1489397854982155
4042 -3.514297863445724 0.8985337335877601 -1.3274925414922865
4043 -1.231617299052411 -0.135646643443527 -0.9700471083874471
1755 1.4664800479626596 0.6218239031785048 1.5195189957274409
1756 -0.3386149060203837 1.3450851205291472 1.11095717247317
2926 2.462762671105309 1.1717038323423286 0.33012427563406943
2901 0.27111361197372674 -0.3034047573869345 0.9522808401399802
4041 0.5052824667615058 -0.4590150476022763 -0.17509347347276896
4040 1.8763128608222164 1.0428175692609074 0.027266119910430764
1754 -1.177565298274168 -0.3582154457930933 1.7475809079062694
1753 1.4287304062657993 0.09279830564497314 -0.7726257454414001
1572 -0.0346395038965776 -1.7117842113929305 1.3763594228343943
1574 0.48164710453656145 -0.793411104048818 -0.22541883498599918
1573 1.718894958134067 0.8063643939054901 3.0324771690176626
3301 0.4874956837079264 0.6922081318712789 0.22623060192327624
2903 -1.7807759275704877 1.1550467114186915 -0.7022112521564667
2902 1.268754375841334 0.5307710462528745 1.0138671076658805
3909 -0.1485573064799187 0.6784977300228177 0.4307312148358118
4039 -1.1991936383308948 -0.7399849168150792 0.19613622686727425
4878 0.6586153000497271 1.0982931313032005 -0.33789826047700955
4877 -0.748296681008351 1.703687127780216 -1.4335236638296507
829 -1.7644507709819213 1.2943495663995344 -1.5466222141137378
830 0.419891092449752 -0.21063921351712017 0.268068409269665
831 -0.8806491360097296 1.0212598858394895 0.4375278990474991
3907 -0.02674152331912555 -2.1219605998355977 1.3485015999688457
3908 1.1104559375550977 0.10741454805105644 -0.2246639865203623
1429 -0.25942507504435197 -2.589702318086959 -1.370044940663567
4400 0.013042036704368598 -0.3082078342230152 0.06497976958511978
4399 -1.6574685977324455 1.107103124611796 -0.8187610666384613
4398 0.37674711376916453 -1.177775907421427 -0.3954659384185525
3905 -3.0289281546200226 -0.023847477721651175 0.9705039256575366
3906 1.0938061283010245 -1.2354656556186017 -0.3509498076712477
3341 1.2188123245999927 1.4473922970403428 -0.3823721934432557
3729 1.1161020440729734 -1.282375710448779 -0.9318658451538009
3728 0.7854291450444796 -1.2955528328165307 0.04155253799347086
3727 0.25486523824523966 -0.6461803168938871 -0.3133633410440487
1426 0.32897634956172167 -0.8390857622170235 1.1963811467281737
1427 -0.2941140273228341 0.6975927377087532 -1.628358774167359
1428 0.28119128020206785 -0.983608697377251 1.3948712023877676
4397 1.6789864704315618 1.0258286035906037 0.7347610546806196
4396 2.5290779378421258 -0.318046626164405 -1.2097560992572378
3711 0.17510818341488474 0.6473236275805409 -0.7889149057873891
3712 0.6318462653276993 -0.04997704919695752 0.016231457743786648
3340 -1.4845793907443783 -1.1869938668645459 -0.004842080711144656
3339 -0.39885475345246046 -0.5262855853269154 0.24355758975356886
3338 0.8671116336324518 -1.2914192591412859 -1.0603859179040482
4374 0.5548329926228217 -3.8230184925909767 -0.23304570318411078
2899 1.959882724503194 0.7862031675903014 1.2874399132586574
2898 -2.106698476750944 -1.2700159892686247 0.5087960819518847
1695 1.2101095841333696 1.0336280957374415 0.937151716831637
1694 2.4871457107430297 -0.29186447295078877 0.20778573715935716
4373 0.14145624549414454 -0.5659783303995014 -0.3288181200239637
294 1.2557947106259726 1.6479959017900034 -2.07924578025365
1138 0.4193678294328812 -0.10802716659593697 0.15153582378107028
1137 0.8448899347917321 0.330290621807527 0.9639219051410508
1176 0.6405316027825125 0.12919004943826873 0.528302990335829
1175 -0.5230147465427084 -0.9690306913258895 0.6742256525661203
4114 -0.13525527426455894 -0.570656890502817 -1.4506628659886829
4115 -1.0482760357242877 0.09086138492739035 1.1629885224014873
4116 0.5243156583796995 -0.4758738019161902 -1.4761093998787356
120 2.6060213445401885 -0.30066941082820653 -0.7786039320768017
119 -0.2074431252847386 -0.21623781426044208 0.39981943962212985
4117 0.4986764660387003 -1.9620426086521099 -0.3633295061140773
4119 0.8287143519565856 -1.2368668712181679 1.4511581966493594
4118 -0.6155814189465343 0.4276334436653636 -0.7148446196842488
4120 -1.2506476859295927 -2.082242694905653 -0.7761522034208239
4121 0.8232141850757373 0.5138238604512071 0.5116759159569332
121 0.061828989964800074 -1.9229874136768055 0.17977151082522488
4710 -0.3570957381349142 1.2638517271217622 1.1196595828514397
4711 1.2152026679105774 -1.6511386983406415 1.6931360125666166
4712 -2.275009259619574 0.14069803721831595 -0.08657880839449658
4713 -1.3689680305163852 -1.876900093520523 0.7054128177085928
356 0.3865412942207771 -1.642451753150925 0.11097534934488312
355 2.121186905104328 -0.8147457489560604 1.2537974741539069
3829 -1.0642675856041601 0.22870031108213387 0.49963772523240413
3830 0.24128673862407607 -0.7808411276301132 -0.6613172181466265
4707 1.4300280575919713 0.31901149856595823 1.080120122710985
4708 2.0583902186076233 0.7257162101761976 1.1186380631749004
4709 0.6490999855069371 -0.32969986642607096 0.022279353910876598
354 -1.600540569652117 0.8330689929847083 0.42735400478889357
353 -1.9228303351935716 -0.524630230658447 -1.2258760062749443
352 -0.7317118938386445 -1.1305382291015533 -0.7340419664581668
332 0.026506443722647294 -2.063756070727927 -0.16375075734391117
330 -0.15505138337813867 0.8488755528421176 -1.3693461600922663
331 -0.2783008226450705 0.5427733134820181 0.08984055810387839
4079 -0.29967219055132965 0.8214109294483314 1.9915138646591664
4706 1.1857442750601097 -1.6946393178149057 -2.484190339448628
4705 -0.2832347001265222 -0.11545683350327718 -0.11092326281679277
351 -1.1159372846045632 -0.4769250513848829 -1.9264344896609789
3853 0.19012807948021646 -1.0155703770243183 0.02226294419205585
3854 -0.27649841860546465 -0.8035064902921026 0.9039901223191864
4078 -0.18491241497896796 -0.13891457027768017 -1.1027392314372
4077 -0.1525223836426216 0.9943226451768449 -0.6447659229397176
4703 0.8420796317325343 -0.0001883599517278553 1.0138361112040577
4704 -0.2982834827268863 -0.2925485984499605 0.6440835249446335
310 -1.356186886991701 -1.75210778089628 0.9822360078849661
309 -0.06768022948449415 -0.5309038477817323 -0.4052452368359759
2673 1.0175901112006474 -1.062419670867897 -1.2315878424192874
2674 1.3424413646864775 0.3637356350860693 1.2781577034068623
4701 -0.7517930903169211 1.1636286306341828 0.6830682159806142
4702 -1.554575045015801 1.3248334899392489 -0.5162854810866083
4722 0.9268099770557519 0.30553581319651507 -1.6177322876947609
4723 0.4362278663576074 0.47760884233185386 0.8048250228117011
311 0.6692655291917948 -1.545910204197111 -0.2789494281074018
312 -0.039808447763255504 0.4967573347944373 0.7562905434067921
313 -0.8537307020753271 -0.38165745628521996 -0.45688919422844426
2675 0.7733431323824576 0.09491549910858466 0.7885316161638114
2676 0.949840604473449 1.632968673709216 0.5073648070725129
2677 0.8167929048502935 0.7825984800015201 0.02202170992690136
2678 0.3974421578112915 0.230829051938024 -0.9674859680615512
2679 -0.2637095992994423 -0.6070522777966594 1.535725047550955
2142 0.16313947430368142 -1.1024479954315936 -0.7513742798590946
2141 0.6234137462980471 0.7943398135085581 0.17866557803018307
2140 -0.8920790473764886 -0.7270124638201559 0.8852157810393181
2680 -0.3695636243800383 -1.0579170233552833 0.7438889480331723
867 -1.1881717365693643 -0.12564671968630223 -1.5286133884137438
866 0.6266513271843369 -0.05500243013211911 1.3963466332901708
404 -1.827320334988249 -0.5653420313022306 1.0094277520344201
405 -1.5069680172606708 -1.07192675141899 0.6312137562511514
4693 0.5514160152195601 -0.6511803543649675 1.1605617879718186
865 -1.1302015860196228 -0.45530839970850123 -0.8284777828870643
1301 -0.6316383529879686 0.6322033132616653 -1.0421747227418197
1302 0.2278126196259212 0.7732190015080127 -0.3471393452013691
1268 -0.5640887528445357 0.047344855519626555 1.5287320434010427
1267 2.8403833891189763 -0.6142079101399242 2.1231378379446793
403 0.7320550551761027 -0.5277795612911526 0.14465533167586617
4692 0.3559532588427091 1.125470099733738 0.14236962360436342
795 0.535071982481848 0.3814702341483244 -0.5800807471684997
796 -0.25609847905839744 0.2136268362092166 1.4614609949385586
3870 -1.4631073952249936 -0.6130586001012182 0.28684389254031284
3871 0.42215304337717524 0.2697557792076049 1.7178252378657104
523 -1.5114948764461393 -0.35688949065838776 -2.0537946707139407
524 1.0072357741326725 -0.5914741473749372 -0.8296177299207375
533 -1.0446946396161192 0.34275498160565215 0.6040560968113939
534 -1.747965097734581 -0.8568572132482749 -1.0349831581355051
520 -0.6617957081184186 -0.5551792910599384 -0.7527460676053999
521 -0.10078913156306857 1.6744494937763446 1.6644321569652203
522 -0.4642983625027317 -0.12615142857755085 0.7993075329871974
1374 1.7584587503848383 -0.1448123465132541 0.7107062241634006
1375 0.11727218187366978 1.8086774513457342 0.660479067084231
535 -0.8901049195107126 -0.8781605752700559 1.1710269504670234
536 -0.33376021216786866 -1.0271569085696677 0.28213545086192315
537 2.369426751503712 -1.4522618938909662 -0.001786923799502009
538 1.6294189206763738 0.7697036505776856 0.28457238112776195
539 -0.000510537123415436 -0.7041491021203218 -0.3991821807481989
1323 -0.5875819764920039 1.4510907185377302 -0.7803425950592686
1322 0.7905736620873243 0.07029049534384661 0.6549040888685433
1324 -0.43482532391623546 -1.203641608655967 -0.9779715432233497
4328 0.7659082828498959 0.42648733705021885 -0.07755121288868785
4329 -0.17281516491821228 0.8128479950350769 1.0009601716362708
4330 0.4213549097014809 -0.12961112025769533 -1.1789457878198617
1371 -0.27620071518911166 0.4416522002336128 0.9449051796553996
1372 0.04690259603149072 -0.3769660993918531 0.22343862107650844
1373 -0.5964108994077759 -0.09060506571767463 -1.534659923976886
1376 -0.6395517893248023 -1.3400784504244423 -1.4323203994024727
1377 0.9470435814151505 -1.9020195584329704 -0.5582779611072579
1378 -0.22932694111250304 -0.15023534436134295 -0.20545514095315276
540 0.7844195524343915 -0.36397385906796803 1.2953705677254197
541 -0.20430766207596351 0.8669940937050301 2.100155933437805
542 -0.32131789874214833 0.14752720776676265 0.5332631930601683
543 -0.8146817019937835 1.9183557701403582 1.1988154919601537
544 1.2619956146065736 0.39466251832957944 -0.23842981557190263
545 2.3073982910383117 1.167667835349435 -0.4204755250061348
546 0.5489318794503765 0.695758829230698 -0.1658836183818156
4054 -0.5715550139422342 0.31146158776801447 0.589066586728743
4056 0.17341701802063283 -0.7010559428937985 1.1148098369597774
4055 1.5422422502584288 1.0755090114789148 -0.509249659410735
1370 0.23399977825547963 -1.156740239504411 1.0826060083699858
1379 0.513470607833835 1.330452086643538 0.6386353825644996
1380 -0.47159176373316114 0.6874947672078622 1.3077255726207002
1381 -0.6300362840302617 -1.1265355001047879 0.5540961126793822
566 -0.33988222884533303 -1.0908562612042367 -0.6197227849005855
1382 1.0633993096274565 0.34829390580392244 -1.8116094702475605
1383 0.33890997437204107 0.4804913537292984 -1.9640916321518473
567 -0.0404852592038213 1.7199121383373446 1.8151362066978454
439 -0.7895713072103224 0.3103106516127855 0.6068844055997717
4049 -0.6311815416661267 -0.7764625238883376 -0.1448004789007556
4050 1.2855731732311635 1.509186569463164 -1.0839657025222558
1761 -0.050215424865666825 2.1864067219736203 -1.027201729132575
1762 -2.6226132792851753 0.6699707859997704 0.8790707762197375
1384 -1.0036346668233458 -0.047623799357956076 -0.07248516935733518
1385 1.3146939769247388 -1.28330709816723 0.6730216714544591
2700 -0.7073338786594074 -0.6407970538419229 -1.595301306749821
3034 0.03797698825924051 0.5629632288515054 0.16222564919580432
3035 0.7431499875996931 0.9283595933898778 -0.7190891574134081
4539 -0.5768667417798329 -0.3269897393984887 -0.5371634109847385
440 -0.43605145639143106 -0.49234157378388316 0.06840393431211132
4047 1.1302406890971424 0.2415846955887857 -0.06660146132724157
4048 0.4932127865535729 -1.3809011164212328 -1.0106129985441157
1759 -0.3545649668943672 -1.9385870181381384 0.5615237407008971
1760 -0.2792164282901666 -0.7174434494587484 0.1393292439726405
1387 -0.6709622570302123 0.45032698342198363 0.4283085324393241
1386 0.046067333258152876 0.4732798458836494 1.4091796566735055
3151 -1.0785646513697218 1.8267769328983043 -1.354709591920869
3152 0.9975572320849782 0.4530258773232 -1.370381201557377
4540 -0.27550946606901494 0.6922748726320069 -0.5330801817259954
4541 -1.200075438747788 -0.673579056803582 -0.876781874285081
4542 1.2954454205393389 -0.9722290377244374 1.034399843629595
4345 0.029136252903126603 -0.2550344034838754 -0.03581360545626591
4046 -1.1826263400645258 -0.5858051694894101 0.8824467796699407
1388 -0.051097814462736244 1.3926221983361493 -0.19305255709597735
1389 0.6988898112833007 -0.8350183670342237 -0.04321458675833234
3174 1.2227314347011866 -0.6039619630495869 0.4152573203727332
3173 -0.8074751796057694 0.36085846140137967 -0.3243651460945005
4346 1.2419382090388393 -0.030699712128568674 -0.19897582276880668
4347 0.09530741072180421 0.47295974012640385 0.86233257295665
3350 0.7059815762608421 0.4035166319308112 1.5882608546855466
833 0.6893648640969373 0.24854582255263208 -0.9271121971361973
1569 -0.025670740078726932 0.21784726586743147 0.9166288447398032
1570 -0.0808150972976642 1.1010584910066668 -0.466193149764013
1571 -0.03726195904428112 -0.6070237643913396 1.0987328175191742
3349 -0.22847183625409573 -0.5497740695756593 -0.1520355694229404
3348 0.5808894874937132 0.8323189734502245 2.2550156643432264
3347 -0.2703123456232752 0.1871413879457561 -1.85464784284799
1752 -0.4029427975315 -0.38922551067942024 -0.032442550850759144
1751 -0.013310345215002461 -1.9935801359527345 0.21825514590030032
832 0.36906789842030685 -1.105487354121287 0.6256456902780604
1575 -1.1449371331666949 1.579606372647229 0.5956911795366586
1576 -0.3921890099003543 -0.5255473818172727 0.41315093757079996
1577 2.2390042249476907 0.3341836700883121 1.21803938842298
3346 0.3089982334682241 -0.2087645553555943 0.7302694239458781
3345 0.5233718841635809 -0.13215116955576917 -0.233021842895692
3344 0.5916927340266753 0.8008002001136858 1.6369786862347728
4876 -0.0134440869416515 -0.8566789734161621 0.32226309321911606
4875 0.9024276831257003 1.6673007240058326 0.3705826105855422
1430 -0.083158811919574 -0.7746817126157505 -1.484674516996425
1431 1.00909521607619 0.8429079419337698 -1.469522699368033
1432 0.21909141620492958 1.6698060674777149 -0.5782153248528302
1433 -1.21267363326836 0.031929968236875134 -0.4179757950496461
3904 1.0588021683154074 0.7306282383586824 -1.1153792000983314
3342 1.6910658876042053 -0.33839095036493216 -1.6469116978961225
3343 -1.9887705567637604 -0.17520453010957382 -1.4997421834473443
1422 -0.7216401917902207 1.8804472606714462 1.4728148439670898
1423 -0.4380305907598764 1.4012266633254262 -0.7619453467428914
1425 0.5715625826341908 -0.4149592354895049 -0.8041530146569865
1424 -0.6260265113047174 0.15266019659658472 0.4668008834209979
3901 1.8548317689320866 1.479356912713287 -0.05753778889483693
3902 -1.1913769233841038 -0.44121253162984647 0.12145254791850754
3903 -0.9361335502011561 -1.4458911924381825 -0.535559415332457
3713 -1.8827131966486874 -0.045098999157161423 -0.24216014105691386
3714 0.05923260506601313 -0.4434727366956722 0.9372055769220161
3725 -0.929298929570003 -0.3200290991880023 1.6521736109108038
3726 0.9943216428405439 -0.256819261778566 0.5749019992381448
1419 0.7896465562463318 1.992385140379294 -0.1798358746925117
1421 0.6637639027670955 -0.6979892263507192 0.8820742639688767
1420 -1.499738809301822 -2.7742303904892758 -0.34976641889765947
1692 0.17922524759686173 1.5457914038163585 0.025378448497868966
1691 -0.14876822296727946 -0.5240132188603265 -0.4575703563060845
1690 0.5212650991316844 0.19068781107396976 -0.15837498996243354
300 -2.429466312294522 -2.180683815285003 -1.0429489626290782
299 0.4267819429402699 0.6562872732492323 -0.06777161228061007
2897 0.45640941260916573 -1.48182239076023 -0.9212722132087535
2896 -0.6760756397809199 -1.226997503069991 -1.3501495195404691
1693 0.7275469567783004 -0.021676060186130053 0.3908841564676395
3694 -1.9018821913386015 1.5361174563882072 1.093612180199013
3695 1.0371564208967683 1.0934187132048427 -1.5070731343627475
3696 -2.623959708713309 -0.24673969760975145 0.37472216595504226
4371 -0.2739636765707897 -0.7880001036346249 2.7203974959639847
4372 1.2036945501548801 -0.41520648779033537 0.3839512524552684
295 0.08559962395313409 1.4690395461768317 0.2074007561762651
296 0.8055314708685439 -0.020143010944014828 0.9259470289051712
297 0.23800628645981306 -1.5438949728257234 -0.7493137373384198
298 1.2242369524658734 1.9090644960062881 0.1596630708347119
4112 -0.37239299434152284 0.8441505716050144 -1.4384453200956995
4113 -2.0807492344600385 0.2320788251678524 -0.810207338618911
1139 -0.620804285223149 0.6077445917141104 -1.0831295672595325
1173 0.08875536978912058 1.8411379391809155 -0.40446667722145985
1174 -2.0350003390897955 0.9958955901514825 -1.1952999737748753
118 -2.0569762091210033 0.895947181085849 0.16224713361811283
117 -0.5628134751558723 1.5809025647562613 0.216274065105363
360 -0.22303271959909665 0.007158817465655248 0.18160789229480526
359 -1.2382851493075744 -0.2152451006651901 -1.6780917265502417
336 0.5947299010861729 -0.6602299467089068 1.153374441903604
335 -0.7740206144683268 -0.7877527989248364 -0.2063707976885451
4122 -0.002991733631986515 0.3185126714832861 -0.2611808115454656
4123 -0.7494101161288751 1.0569425618670514 1.027145162759087
85 -0.05452454125206273 -0.4332933635467998 -0.21080331317760798
86 1.18475936397523 0.5042243013348506 -0.02068168219137151
358 0.45624620376345093 1.6969900305810928 1.164455684153294
357 -0.13643725552221364 -0.03176263272488353 0.05248369554192972
333 -0.05086552060390834 0.18484357755613243 1.8633522335135102
334 -1.1186474579900307 -0.4319447549383316 2.0195345616612106
4082 -0.5034030752737646 -1.1957437862488594 0.44263168771627726
87 -0.8986760445229668 -1.0437650042372155 1.1997538199744509
88 -0.45316957020588 -0.21984070409887008 -1.461375373191605
304 0.2884625403965051 0.6082614670807246 -0.0155899947356255
305 2.0240702287430508 -0.6610137802539973 -0.7889520957697795
3831 0.42665484452826086 0.04710334830171431 0.30569533519673125
3832 -1.33660048939859 -0.35677347306248675 -0.3893058091995608
4081 0.6676518253427972 -1.2901356501597927 0.8684670272043328
4080 0.0867915233215173 1.0401418420727135 1.97829189757196
306 -2.6879065485043547 -0.4574370672434356 0.6695949461268635
307 3.087845301446409 0.826557083776352 -0.4265409355294796
2671 0.5047080286404929 1.6287341162795759 -0.1208411537706501
2670 -0.5004418324882643 0.4404566436461239 0.8747777801368384
3855 1.384364651041562 -1.2638292106006208 -1.834073335530924
308 0.2865125486726102 -0.6961969840438067 -1.8322530408292077
2672 0.008996536941867028 0.8705558164088791 -1.340385922904354
3856 -1.180138945807594 0.24314657648979415 -0.36891421346334313
3857 2.2224649353171273 0.2829105478451525 -1.271657920703287
3858 -0.14696996406592028 0.04680921341646464 0.9043217056571276
4724 -0.0942280149752575 -0.5937545904453427 0.1250887271751937
4725 -1.4210085336626344 -1.4893942308868182 0.4528912432901581
4726 0.653044368780012 -0.6673375490462589 -0.30151068286210364
2151 -1.4817597014429664 0.009168304434743701 -1.189028209577733
2152 0.5763900270797342 0.14805407034881968 -1.208865396832294
409 -1.0426570813744154 0.14034701055826682 -0.1798712149487073
410 1.536419366656067 0.1224256509470284 1.8700917957048484
2153 -1.0248869510120857 -0.11527269811748969 -2.0673985917999538
2154 1.5803333062843181 0.15756426044055816 -1.2067834694149138
2139 0.04569697194929645 0.9351531936901187 -1.30442338697282
2138 0.8373932576745827 -0.9636433814072314 0.1334427872967578
2681 0.17541417374022283 -1.8105327261023927 0.7412152973043176
408 -0.30667143741142683 -0.7818346235876025 -1.3366606870506794
407 1.2776346820407827 0.6535513984793068 -1.1799403577688699
2156 -1.0038755550178573 -0.3296372847774688 0.9335147233824471
2155 -0.18485093490170254 1.161915777718291 -2.289693918606636
2682 0.05189195889647716 1.258047682274211 0.855630851615101
2683 -0.6717076191520603 0.728871243559238 -2.37706491290101
2684 -0.26726733832830474 -0.8293671258861504 0.9003962695070403
406 0.5570488709862285 -0.8782932154119786 -0.8598882588587748
864 0.4992227151000878 -0.13907576971708396 0.10116063135073229
863 0.03575171674139013 1.1210748277601816 -0.10045724157719041
1303 -1.1078334409492407 -0.4344242170195635 -0.674800871927251
799 -0.564434212287113 -0.4406726206558014 -0.4572148417981732
798 -0.38550529638755526 -0.6829644064290754 0.33048561854740927
2157 -0.25587314746360834 0.20610495316931587 0.09970944916417462
2158 -0.416257653787675 -0.39195013039821325 -0.8013494543077436
2159 0.7650375123375102 -0.005141403978163983 -1.1511042451225673
2160 -0.09867662432299598 -1.3113707713812197 0.02188721785957215
2685 -1.770834847973268 0.3158311933796314 0.14948850468363586
2686 1.5826660120259592 1.1588963322014836 -0.9542952956205671
4691 -2.644916217912675 -1.340935202702586 0.49828208228452786
4690 -2.2016850505729124 -0.9009115851505978 -0.4409277621054235
862 1.6632428011548035 -1.050173353339384 -0.8001881651853685
861 -0.8544736323225833 0.1829547296606759 1.2929586307251575
860 1.0832871862746245 -0.5209832819182492 1.3754389155541884
1304 -0.17898740206884584 0.7385047323686862 -0.735287857822005
1305 -1.0121012207441153 -0.6432696642293516 -3.2738521386315274
1306 -0.3194143082535756 0.8188362961940253 -2.585147547891766
797 0.9892487890649598 0.32040210174509515 1.2023170087161492
2161 -1.5085433236969203 0.888392477449303 2.440657255259672
2162 0.4628550968487105 -1.7673387582465803 -1.676181756610608
2687 -0.26806516251048057 -1.2523775743139853 -0.9452421112468091
2688 1.703273953250805 0.19653513803137496 0.42660303085988144
3869 1.702198658268926 0.5779906988659058 0.18605469614281328
4689 -1.9945451088092314 0.578834401914396 -0.9887859711216056
859 -0.9754965486281711 0.7751878358478027 0.9755864274375283
1307 0.87990259580836 -0.031285135424077834 0.683412017569205
2689 -0.1993028101414817 -0.46158719929194136 0.12802825618175548
2690 -0.5954900850646401 -0.4276586250624741 -0.475464915345145
519 -0.03466147363666423 0.9096833192389419 -0.300605303934636
518 0.27441620475928746 -0.39733307905897985 -1.8153921625002134
1320 1.2219864878915447 -0.15864282931986134 -0.09708579290701033
1319 -0.5037730260085884 -0.5030514671912193 1.1023413871983077
1321 1.0631325675905023 -1.0942496950381715 0.9760725713894304
2691 1.6724244179640748 -0.644402344146348 0.5983951080714656
2692 -0.002284496979800873 1.3416950565020964 -0.938207561911437
4327 0.7942265003169678 2.572526334563269 -1.6927040354643883
4326 -1.2689105859473069 -1.4049171990682505 1.4987483447159407
517 -0.26100506972995063 0.048884356350801975 -0.06419660506367006
2694 1.1976451618850843 -0.8680402201469049 0.5234295959575955
2693 0.03386074755236253 -0.6692384359831811 1.168273956356054
1766 -0.0862914810584034 0.66526745775181 -0.07759869866562119
565 0.03667376056297797 -0.8742040612348078 -0.7932509175672128
2696 -0.26137649207343666 -0.4784330301946439 1.6650946344106
2695 0.2240973562621387 -0.4765332982105077 0.8657114475781946
4053 -0.6122401733919761 -0.572312084395138 0.08414511809520718
4051 1.2502486323135091 0.12428574348291424 0.8029867829785662
4052 0.2869662712790639 -0.6658006474060703 1.12760278895335
1765 -0.48643732207905677 -0.55392041757264 0.7273758694092286
1764 -2.0167415626489333 2.067062081864264 -1.4776540402097207
1763 0.15234535482616307 -0.9076114430904919 0.4690577372158791
564 1.622827632487949 1.462591105105044 -0.5476217776881158
2698 0.03487374464197983 0.724572586244878 -0.9749164087449952
2697 -0.4309941396741656 -0.023523989266318657 0.48662776824180426
438 -0.25776748414791484 0.18199902192587208 -1.988275763636474
437 -0.9747613793950454 -0.9834964379791116 1.3896379057221884
436 -0.09860643871494548 -0.8378913908398579 -1.7410221228759764
2699 0.11598516456668441 -1.6319755743266673 1.8657912861630934
3036 0.22204886474328972 0.3684845454497457 -0.8429844377709957
3037 0.19062569862410464 0.6246245452662136 0.005590714396603275
452 -0.9575685969896736 -0.3288976151141385 -0.30719295722492035
451 -0.814214747187147 -0.5090691693723666 0.7964707070281052
453 0.11543251501515739 -0.9527805841484327 -0.9970803874398604
3153 0.676402561803267 -1.1380438210065171 -0.016741845101179015
3154 -0.6334422449815488 0.25953752738801317 1.1020811715295316
454 0.24063974602414118 0.03157749386001829 -0.46298896320062727
4544 1.261585916261668 0.46925123638218025 -0.2986418083125453
4543 -0.7676063527051565 1.0464113615025576 1.499905328406897
1390 -2.5893382988847127 -0.13014389148378042 0.06472538310133331
1391 -0.6442143510369592 -0.9434509043362642 -0.20870457052859992
836 -0.42746816459519166 -0.881856690637014 0.23961540764034822
1567 -0.7820979609192862 2.2358785141957833 1.0735634810529946
1568 -0.8390451349425467 0.8962195255989627 -0.9069267263971112
3172 -0.10324973646656493 -1.9020493910561511 0.657235318617246
3171 0.20180589006456118 -0.8865957214678574 0.5284629751088858
4547 0.07180405669257565 0.7903211716855864 0.4090605587378878
4546 -0.06949451545216315 1.6084536507264569 0.5142190609093964
4545 -1.3539723651206248 0.1749418422330016 0.6778872074956677
4348 0.76341051783274 0.5197058874102587 1.3076228645663477
4349 0.8567110283939137 -0.45565657604293924 0.5643610262308794
4350 2.301511382603524 1.4012954099183021 -1.3172552820139625
1392 0.06734009370076799 0.8365976276841183 -2.431150717444839
1393 -0.38660367441117466 -0.04962061275762497 0.7822002093474546
835 0.197184534902655 -1.320752641889427 0.5557657492677777
834 0.031308639146246764 -0.8794597084587737 0.021607886017940683
4548 0.7900402101890985 -0.4361365579656382 0.9607915875415455
4549 0.5069804880610513 -0.3335756225610785 0.49539800932753986
4550 -0.6232275017550599 1.179222054889673 0.5676062399470144
1578 -0.2851565548841808 -0.3655872964533974 1.510485746138901
1579 0.9215686903404181 0.04914096540476756 1.214011015264343
4874 0.8787729132833602 0.5808417356126944 -0.9664640127515655
4873 0.5458439145902471 0.045097514943675115 1.2241006660500697
1686 -0.5193707820705106 -1.6597377850080246 -1.4605917550807765
1687 0.8842470205976309 -0.6254395738544148 0.48720167182270446
1685 -0.6036316352754048 0.6541071163057993 -0.07424431944360924
1434 0.5361178196133574 -0.07537629645034885 -0.05043577468146876
1435 1.3040031738196507 0.47202640258169215 -0.9296923125187199
1436 1.1436302730759267 0.10233651635188008 -0.11431395178092231
1689 -1.1844113350646555 -0.5851372433791852 1.4032506703422538
1688 -0.18264475698212015 1.8705075103436848 1.1262746752853667
3715 -0.6178362467671847 0.8886541368258234 -0.0028694256139686347
3716 -2.111532896392227 0.01794453900117471 0.26148953048933044
3717 -1.2333500922651786 0.03916693827078076 0.3092126831692535
3718 0.7367684547887131 0.42337090813142 0.4309979862839639
3720 1.3561765745093517 -1.3108265056958772 2.827555660703408
3719 -0.30094888789126517 -0.21694489100887954 -0.20844773613586803
3722 -0.6970096566296328 -0.5936182713246014 1.4459422530155512
3721 -0.37947730834240173 2.106911173254585 -0.8146549675861622
3724 -0.5439297181599825 -0.38217121093631456 -0.2548968676735962
3723 -1.599365963585495 -1.0146883733292031 0.6836479267271873
1416 0.40057976809167434 0.3099483490834745 -0.05791844632222566
1417 1.4355075269373248 -0.4666329151627183 -1.0280195179092735
1418 0.32707070791309617 0.12174642078779055 1.3839157033856908
2895 -1.5211399823074976 0.1737564602096012 0.13207879241111767
2894 -0.11870566441302158 -1.160708547839645 1.0307233443128432
2893 -0.3864162676798223 0.08290738371406786 0.9024953539388896
4553 1.4117807900573056 -0.6982697066895132 1.118811457064357
4552 -0.16622100700081618 0.22467410268131613 0.5859228468790558
4551 0.03562749552458183 0.2953522307183676 1.003805124467542
3698 0.030973234684677053 0.17509846241420354 -1.5886328206133018
3697 -0.022772906449033663 -1.345115243646647 0.6342883406357072
4369 0.9556644061565968 -0.23037025726646548 -0.2818955491045021
4370 -0.21730130006503162 -0.45043848500363465 1.2106804597680516
1140 0.44249137159843066 1.5249912472953278 1.5500408160434562
1141 0.034222947222822986 -0.8613235976311918 -1.0637180082450435
1142 0.2081475486298334 1.2461094108408408 -1.5832902678093423
4111 -1.5949966095989887 -0.09994711198500107 -0.8544677909482541
4110 -0.00198431720328085 -0.48102630769391097 0.5650572303846435
116 -0.2594998833786667 1.0511993453469861 -1.2780097916766326
82 -0.5913330324616148 -2.7508239312730653 0.6660582073478775
83 0.6476291605958013 0.580570544544174 1.1021830595340292
84 -1.329014082667588 -1.1816008827394044 -0.9927229683489648
115 -1.0419628928829288 -1.4403053684311053 1.8785448431729386
363 2.205581665200188 -1.4738961857491237 0.5800997393743238
362 -1.4168731877333325 -0.5444263554508816 1.142820023558599
361 -0.665672065224941 0.26226816786667095 -0.011164253912817598
339 0.1504379114945188 2.352970841003316 -0.5054704496930451
338 0.2868182278235378 -0.4816933758718751 -0.26106880492312295
337 0.851176422105747 0.25086075351144604 -0.3400637878584277
1170 0.08058917050809505 -0.4312113692366817 1.3639344250660173
1172 0.983804713859164 0.027558809055346606 -0.605322377631277
1171 -0.9740669731084868 1.2670889986781602 -0.23028822893704348
4085 1.2983067755691187 0.6223146080609738 -0.8732361584177553
4084 -0.43705026999431384 -1.2259938908220087 0.45969110264103485
4124 -0.26751691132365796 0.4253391397860468 -0.11991913111159613
4125 -1.4245129944930965 -0.4506410206055386 -1.9269174408758292
301 -0.4563902253799992 0.5403366474865161 0.4797906384281291
4083 -0.8326142808283039 0.20495585613729916 -0.4040588665697034
89 -2.1309771139325524 -0.08964015801203454 0.9839940972706805
303 0.13465205669348074 1.7374091152833933 0.32034634717324223
302 0.8367714920531524 -0.19169964906338072 -1.0364029310114629
3833 -0.5034099719274059 -0.31886907977524076 -0.5353306158903577
3834 -0.776835753099275 1.1459975399707751 0.3422271665270773
3850 -0.4101180737724175 -1.0614930946882297 1.1621462086466097
3849 0.7776154937105688 0.25676417221222275 0.09369162472135112
90 -1.154049520925891 1.0189114574984965 0.658309532790723
91 0.4712437627804943 -1.224878375096879 -0.5233314321055681
92 0.1339540308897499 -1.2679116211237642 -1.9909310248924998
2667 0.32370022941991383 0.7303824928625174 0.03997556015032086
2668 -0.92176297656113 0.7000324353312037 -1.7354818167396024
2669 -1.123158978582137 -1.935677356434882 0.021919892606678912
3835 -1.8893319314217387 -0.723133769828538 0.6456109454439677
3846 0.580935177707075 0.7646367820624634 1.362164756997982
3847 -0.0216380584022437 -0.06314361553792036 -0.8032015443438326
3848 0.22071089795248292 -1.0493355936494086 1.5145666208742246
101 1.7538083160388882 -1.1195349379594728 1.4496266709857317
413 2.381473733623438 -1.085787771208998 0.08137157055324598
412 1.194570249391179 -0.660799415672646 0.7136123986503419
4728 0.08360355013603961 -0.4769925950402716 -0.896927815850856
4727 0.015667157624329825 1.0365189766993668 0.1308205746766366
4729 -0.6056294779926815 1.2964015414665475 0.45866671829035244
3859 0.509596598871646 -0.003495688462376495 0.2541953741135407
3860 -0.1345907209253352 -1.7474896246006688 1.8882553000077027
411 0.9789201300553676 0.2714509029777977 -1.0149946439873396
2137 -0.3640860154362242 -1.0512980288022484 -0.8889749287318479
2136 -0.6279404458680826 -0.15035110537400465 0.9659173615672071
3861 -1.0786368088066236 1.0226450258588327 0.8321239301402967
3862 -0.42251807550797466 0.22024612119994333 -1.6234587679910928
391 -0.7612888413024004 1.1046461860536052 -0.9743839565652401
392 0.5825739503321811 1.5838692361996016 -0.5225988970509209
390 -0.8493231468843784 0.9179341493501745 -1.0331969751205625
389 1.3900646441320301 -0.15144209934937664 0.9118783581676374
388 -0.5710705635094455 -1.5910590033251095 0.9909243359045382
2701 0.8179766399524633 -0.6287460105562663 -0.676237164605205
399 -0.08889960899985556 0.07970461285293268 -0.5072970978004591
398 -0.34247177703994025 -0.553260854332756 -0.17303419568915845
397 -1.4059003746366616 0.4266345488152025 0.4559616498419405
396 1.6874398599073523 0.8610311665935328 -0.1901854746548426
395 -1.3781237611009882 1.068467771586476 -0.23382373271194506
393 -0.33652750178137336 0.0720124181568706 0.12246330208252712
394 -0.19011748957228325 -0.6350738126756079 -0.7637390265234814
800 0.1197691898936064 0.20966481105581528 1.2090445484173378
3866 -0.24230838747822325 1.1212517041108003 2.262147312367895
4201 0.4870292470603914 1.3797725299790553 0.26280367592240506
4202 0.8104393790705127 0.4793978514354341 0.7481836224764653
2163 -0.4221633859155036 0.49549924799473105 -0.13788861250698484
3868 0.11784428857290333 -0.7131502097506977 1.4799073284877342
3867 0.0024829962229827585 0.22957595981908657 -1.046049119366281
4688 -0.18955111689074894 0.38506349927438344 0.3096366939115446
4687 -0.27882479336224675 -0.2005126680719248 1.0484029833027926
4652 0.45416850357742355 -1.788271602471484 -0.7759051150796283
858 0.3286478910439413 1.5483472662805002 0.9869410661698045
857 0.234087563540954 2.151801879200195 -0.00408670435856337
1308 0.632139798636461 0.34379490434220783 0.5384771051406855
1309 -0.05581187528658452 -0.9767156045328181 -0.39973129018891856
1310 -1.367690576787124 -0.18964873843873675 -1.5858115108358941
2165 -0.1354886991980373 1.5501503710394986 -1.740215422886989
2164 -1.1411358038475858 -2.373642522731943 0.49347275390767775
4651 -0.9317915040782634 -0.10420863000204783 -0.02617420732914301
856 0.026738177819524783 -1.1886528239921448 0.6847674399637793
855 1.9960535780860607 1.1430635356509151 1.9266017831388491
1311 1.6792994771246006 -0.02894082980223281 0.6377938221286115
1312 -0.3572108303369271 -0.6070584460467562 -0.17099469534116285
1313 0.4955365799596442 -0.5991782220906781 0.32184352328865407
1314 -0.8276439680957696 0.9588286608829936 0.44100374295638767
1316 1.4299418713777585 1.6993739569217612 -0.6724679413932021
1315 -0.9256017109661981 -0.7586280045984459 -0.14713411382469946
1318 0.28194243031686805 0.5582657679441699 -0.569470756068659
1317 -0.5507961276291626 -0.3716233928838245 -1.4314949422058845
516 -0.6377036484186912 0.48407376625940995 0.17394348758313
515 -0.11919811117870577 0.5719063967702238 -0.6875639977186816
854 0.16080413625829287 1.0214945459942442 0.8514455330938872
853 1.302638821062804 -0.9620062844454812 0.5679490678784234
4325 -0.29134263171771646 -0.030430557653794554 -0.1507667590597432
4324 0.5977114658303074 -0.3068240432737255 0.36101688935767495
1770 -0.2381894176879853 0.8785626096730378 -1.0054304311857063
1769 -0.7024809589701395 0.6745985277285024 -1.5855563147769123
1768 -1.2056218577087632 1.1816206861661747 0.46260681730541264
1767 -0.0220365180975691 -0.8509619540480821 -1.713136317122164
852 -0.2064078457809519 0.17978963470412743 0.4404213510326628
851 0.45334536071995524 -0.29139869477017327 -0.6705287934989148
562 -1.3334321579739312 -1.2312704763675804 -0.24291228031080936
467 0.12843931950989312 -1.4731810401438867 0.7329362630173764
468 0.4561033976518191 -0.15476064583831725 0.8699914195782585
433 1.6626474989057716 -0.35460288294516107 1.0910174051697168
434 -0.38221666702968715 0.011159013480678825 -0.4511341954557803
435 0.4401582800551656 0.13895728685378372 1.6979229361368708
563 -0.1618251507078859 0.1147817052168131 -0.31663140669583945
466 1.9250367315782417 0.7363455530078973 -0.3627202682209424
465 0.7103952683808663 -0.6855466399606651 -0.5439547536037346
1750 0.05873214552166213 -1.494809087110494 -0.36511060136196216
2210 0.9659617911142274 0.7141923760328593 1.5646812066427969
2209 0.04335149174055694 -0.13900817300402893 0.23887233098209956
3038 -0.8744052592049243 -1.1289270118197907 0.5916910229807258
1701 -0.7317034593630976 0.3046486269083391 0.4067016471384548
1702 0.29208125262130274 0.06840326772132005 0.6861280642293336
464 1.2356670022024705 1.998423815446753 -0.08736037286888858
463 -0.36845717901230457 0.48255783844969186 -0.232146299806264
1748 0.10550451311687006 -2.3159864885612245 -0.9408194909822725
1749 -0.6142951436330928 0.9561943527720907 -0.8832991587729491
2208 -1.0752052469118742 -0.1434169835348604 -0.38854967592132567
841 0.6982633534792084 1.3711610619989307 -0.7951089521571537
3155 0.1668402179097065 1.7966659564306828 0.3229713956471649
3156 -1.6000753537410148 1.107071808263419 0.7845273812828821
3157 -2.269246948545554 1.5078699037304333 0.5478194458415886
3039 -0.8956201913865183 -0.8282831971398232 0.9907275605852501
462 -0.3565081957652775 0.14988696071827903 -0.2883878601258198
461 0.07822420990820537 0.8312957087362441 -0.8146618780583791
460 0.5976291374685192 -0.21455034084134406 0.7339611815385966
459 1.8765049305401253 -0.5278845192493375 0.7697377221359423
458 1.1162392414768343 -0.0824496037236218 0.7732132797379199
457 0.0758330453884748 0.3300611846481091 -0.42629308984738
456 1.6851435719913315 0.9272615637162085 -0.24792372380914915
455 1.329318008952804 0.9773796252495428 -0.5633222672280389
1747 0.12385872129906078 -1.0273332324158475 -0.47034688803240904
1746 0.3260754878663448 -0.306299386315264 1.9960920103596278
2207 0.9218880505748261 -0.8116601561647722 0.2174035080467678
2206 0.896393241286968 1.7055865709628126 -0.8489999519667701
839 -1.4571146554449141 -1.160714012207262 -0.28297856311502545
840 -1.0287502132921498 -0.42574878645356273 1.7339447132672703
838 2.1823439121697104 0.5834015734728514 -0.6537310298396094
1744 -1.1716095700614277 0.6721121067455582 0.5712254309278029
1745 0.029901729717073278 -0.5061556631204325 -1.394677283710424
2205 2.1953105321678743 0.3606492473698081 1.0902997194818935
837 0.7933418840367954 1.2378561600457283 1.1085835112566023
1566 -1.155834318744693 -0.10270124377757453 0.7032552789127441
1565 0.10242949306033303 -0.5530719074395121 0.16369879430335899
3168 0.3563513147720017 -0.04685351975701101 1.6924853491986331
3169 1.052027238093533 -0.2257183850785677 -0.35291798726630214
3170 2.940500263803024 -0.5804149215096146 0.16344286642531178
1743 -0.68617131138508 0.8513265800758474 1.1173763035780564
1742 -0.17062634267171223 -1.272572045371275 0.4759978164902401
1394 -0.13861936205975822 1.0344393220748984 -1.0597676905716487
1682 -0.2539898019882651 -0.6630542265792538 -1.1793647481647886
1681 0.4469054563395721 1.6657053720694772 0.16527619193688953
1741 0.1075723816971895 0.6749691290013242 -2.014970207302315
1740 0.22070885204715168 0.7216228145325939 -1.1567229802642454
1395 0.9252625826788736 -0.13305271562227033 0.0007033885300930035
1581 -0.008162327586525436 0.11413756141068382 0.9053102621189835
1580 0.6663460844899779 0.17800256651296917 1.0455494279449389
1684 0.5493020607450382 -0.4018596361058465 -2.40116516984658
1683 -1.612445867471198 -0.14663180105621962 -0.3672294717728319
4872 1.2915105818542465 0.594083564145419 3.246081115248554
4871 -0.5783631131670568 1.7171516349915978 0.09433996470013353
3150 -1.3059631652791297 -0.9215994071538821 -0.8518839792826558
1437 0.23691559130011694 1.080693023428816 0.7277727500012302
4556 -2.1036652438024985 0.4406302421063846 0.9416622998232674
4555 0.813599848231615 0.33259288705565215 1.212035855353003
1413 0.16863136501087833 0.9585527755415099 -0.2467326158075788
1414 0.17144292334733027 2.4151601151831708 0.4865500704480683
1415 -1.155704848870019 1.0180910811307955 1.2171426611168121
1148 1.3234467554579141 -1.3661147934422093 -0.1058554718331035
1438 -0.8846827496882989 -0.37746318155538305 1.0596190806404548
1439 0.7057910171054632 0.9723614252326134 -0.8736713684993913
1440 -0.9741398563678898 0.7548105692317896 -0.9468299553052222
3699 0.030650047684803616 1.949474376956799 0.038983568742519764
3700 0.7764451724244453 0.4146159620804801 -2.405631564016527
4366 -1.3432719665451862 -0.2974961639501471 0.5278533781139932
1147 0.30458212472624974 0.07777790603259949 0.9262021056921099
1146 -0.45051956516646435 -0.9070973354013269 1.5043349356643292
1145 0.774063499072963 1.0009571221061966 0.22799190742963943
1144 -1.9783785598706645 -0.34519996841470657 0.7656232520240618
2891 0.20037308140158402 1.5655212420486513 1.5624641071997576
2892 -0.7449407593400827 0.33591647763883525 0.9598739622529189
4554 -0.08879778040510174 0.05795319223801271 -0.412911701824688
4367 -0.8188308331059811 1.0315166451991826 -0.8772889736883687
4368 0.12473389744155144 -1.0827321952027884 0.6709328961972443
1143 1.1763181579236275 -0.04401588912974505 -0.3778154296148561
4109 -0.13162796476688116 1.1538690324523901 -0.2651893635767419
4108 0.9992541779823876 0.01606771980492678 0.4713799826677488
80 0.05027811013227748 1.5648965208636876 0.4694658461627429
1159 0.10368107562229323 -1.1910019354949168 0.9006136445357928
1160 -0.7057606494461686 -1.2428564499322117 1.6881526183351754
1161 -1.2855404758872622 1.0743215700879691 0.7649834754314078
1162 0.12257896891251979 0.07872035193867727 -1.4376491392818036
81 -0.6769069612457272 1.21720995456363 1.6200876434448506
114 0.5394680067826508 -0.4481000531348498 -0.4258756675483068
113 0.8793668349011752 -0.2684128777681841 0.7758782621685684
112 -1.0787639803038571 0.1937646468779247 -0.5769039236685229
364 -0.05950197116758117 0.7269612853251928 -0.45120909864004966
365 0.3510471704432767 0.4948645449972575 -0.12451375261451308
341 -0.3707419863008443 -0.44777775508205786 -1.3540983870028729
340 0.809860073105684 0.04070316269813862 -1.1817309656146264
342 0.7485231320720256 -0.8596663837962765 -0.5645239466758594
1163 0.594779271357647 0.5254343906276682 1.3620147200451185
1164 -0.5448058432387701 -2.2409848869355193 -0.07567939247514485
1165 -2.173446076694728 0.5069227977447661 0.969438766643375
1166 -2.488717386943922 -0.7240499724975811 -1.8190595840001846
1167 -0.03699923148329112 0.6655055628076082 -0.4252001440145678
1168 -1.2299266098583705 -1.732920657080548 0.02296200629038886
1169 0.6402548712249863 0.5264992121170056 0.07205013019616185
4086 -0.3623257245462718 -0.9779028382729056 0.29031566542670895
4087 -0.654637886494484 -1.0972460460425297 -1.5021585242739606
4126 -0.5948222608266943 -1.5645687846642458 -0.19197997652270332
4127 1.4283578160552952 -2.6949055126330252 -0.23813644636523068
93 -0.30784554612652315 0.13709973306153325 0.7555854963642895
105 0.5854071013292256 1.5759233099282601 0.3195304495649936
104 -1.2361899217681456 -0.7089250443514974 1.6832648166009825
4737 -0.02966764372985172 1.087448788282682 1.1087943436605372
4736 -0.4141874676033692 2.271111282985983 0.7206757795824174
4738 0.18986268961634375 -0.033823165693772236 -2.3411370586620723
2666 -0.8713358328003901 -0.08873351123168326 -0.19622769793096467
2665 0.5410461471082131 1.0663602889992336 0.674321110769185
3836 -0.34851944946594415 -1.2318428313963155 -0.6624253233201244
3838 -1.2072911006398173 1.1905185667981841 0.48417504423992863
3839 -0.46983246416320085 -2.3231988471022995 -0.6191274772039099
3840 0.22011739234699806 1.5104331064882912 -0.25890160155247166
3841 1.0577073265263521 -0.7195880024165304 0.587165625806009
3845 0.4012336400909494 0.3794021998641599 1.4936862858982334
94 -0.467161601966988 -0.0781880114802928 1.560794744248093
95 -0.0250527055056895 -0.6362630633986254 0.01946222018243148
96 -0.3572228750283602 -1.7647024979290407 -1.5528921180002118
103 0.19128176512066292 1.8304302469226605 0.352097176313406
102 0.9294869899644865 -0.27892255769167223 0.6108628545120434
4734 -1.3133981172172142 1.6580986483105427 0.971472514277165
4733 -0.3123554626514148 0.41587810797748326 -1.8178547257021862
4735 0.9535965165256675 -1.7316287022397976 0.12896156623872565
3837 -0.8416087728744066 -0.03663181874868768 1.1024139737867853
3842 -1.1055863834442268 0.19407640517269095 1.9263626995704084
3843 0.7547400321160893 -0.5471294182339993 -0.5794868577757332
3844 -0.41032633778419164 0.8681503933793302 1.6194990433777159
414 0.7660092115869228 -0.3757265489073747 1.5597193537913239
4731 2.9975285971109407 -0.48298170210150826 -0.21116583179160303
4730 -0.5114665292833281 -0.3537240939324158 -0.7481882866228325
4732 -0.45367854969865995 -0.3430145984213835 -1.0280258214176243
2250 0.8836820782045063 -0.2684143342833546 -0.4656517459489851
415 0.19209166385351542 0.13900893709959677 -1.926331920557647
416 1.0080626285480219 0.423314570811596 1.722404636535958
2134 -1.0905321982231868 0.9493368028346004 -1.5568005045066942
2135 -1.4260347116727392 -0.8115596711809057 -1.6037136633446545
387 -0.13513939182457066 0.2747911909434039 -0.6190326309963533
386 1.1866928139672575 1.1894995630251457 -1.6422962728106232
385 -1.8357098937215417 -2.3789021495452842 -1.2318198454745308
384 0.7323750969921733 0.6976588331151113 -0.4915588008369184
2183 -0.37974205930964233 -1.0315724757153266 0.1693279080322501
2184 1.156668842995086 -1.5070338841202757 -1.7584881241801968
3863 -1.7590504318676632 -1.4087747757016444 -2.556769115351131
3864 -0.16463494891635877 1.289043891035311 -0.5945765168772184
400 0.7645342478547097 -1.0199916546213534 -0.7261072883904593
2182 1.5707257016972518 0.31857100450071413 1.948590010140733
2181 -1.4521492728382177 0.24536146143977355 -0.5342634133937747
2702 -0.39755920210865314 -0.5669633150220257 -1.4860427404322032
2703 -0.44063997090223317 0.758944168280576 0.10108982824381427
3066 -0.8381525437573683 0.6158322317470337 0.6180931081294697
3865 -2.3750632320872653 0.4955970333705362 -0.8743047887130699
4203 -0.06634704858798293 1.5823274661470759 -0.6721569627902358
4204 -0.9874065111662237 0.3570834250152216 -0.20295572256122188
3065 -0.43647684960249045 -0.2543422478568844 0.0608830443367592
426 0.2569034632719407 0.8098886895989442 -0.22590507925347042
4686 0.308232144969077 0.43313291323389796 -1.9595767061038487
4685 0.01823417554699336 -0.14604185070777176 -0.3316718846772595
4653 -0.9600123499054042 -0.04458381559700164 -1.2492760796903282
4654 0.2398562937070633 0.3613465498582692 -0.3456381479905721
3064 0.8955243949312497 -1.9745912411040278 1.5001272771320364
3063 -0.23140814969231416 0.33428516792426294 0.7131103681451402
427 -0.35876482234509166 0.40940449588759553 -1.9598879094971107
428 -0.49939770951654966 0.5381899646771702 -0.8884666284555095
2166 -0.1905343661392804 -0.7965316156733302 -0.3081470483903866
2167 0.12728262436327403 -0.2740973668429483 -0.3186614394766478
2168 -0.932162848118044 -0.027988639140425944 1.768413568622323
3062 -1.5356443130793622 0.5456590412951596 -1.7922798892233758
3061 0.46737384412278593 0.7004910189266642 0.989452338325506
472 1.3183468066477566 -0.4720971639873955 -0.8961180982332645
429 -0.5083143340025017 -0.05698441793758058 0.12181022168812403
430 0.6233798962496784 -2.164043088409527 -1.1351095651845133
3060 -0.556018739146537 1.6230356048777757 0.059426436360260015
3059 0.0002661237791478088 -0.6513033923198785 2.648507500226752
4323 -0.5823932852188491 0.8175433096658867 0.19147195591499222
4322 0.5494061697535065 0.7415168764514724 0.13198143141357657
470 1.6898384491663077 -0.6181473903020802 0.2758968270646705
471 0.28869323242220507 0.846557361840435 0.23053703891725663
469 0.3870595329201728 -1.4694611933325572 -0.8902801678152344
432 0.242689173851773 1.130803950371818 -1.0981978194993978
431 -0.12609771192733094 -0.629146538913046 -1.767954836972217
514 0.6922350327737996 0.20119280054574273 -0.9794753333094427
513 -0.04777513872290837 1.628255460078788 0.11924853457773693
512 -0.8880794339788766 -1.4170971351345043 -1.0281462863363728
1771 0.7115182481402049 -2.1660299683843047 0.7865365510174702
849 -0.9504656742945099 -0.7947396403386627 -0.48319085336429624
850 -0.18356978641250463 0.5855943632941802 -1.1507821521595887
848 0.7751038714885026 -0.3136205361773565 0.8512698236572607
561 0.4443207388753111 1.4978584973237958 0.9508866314462575
3057 -0.4276095173839264 0.24790410698516083 -1.0473890820556322
1772 -1.2707751176056994 -0.38633405253324016 -1.583897375489573
1773 -0.0894075681118248 -0.41656220254267073 -1.154945993739619
1774 1.2697323414893495 0.22304592505730872 -0.9944468366001772
2213 -0.09064060223298909 0.2062122141951646 0.06039551604504517
2212 1.211147315850611 1.0862716465702447 1.251434506291183
847 -2.258346551539825 -1.7932248694026425 0.03879980988521267
846 -1.2576177882542348 -0.6139821962680405 -0.8649034595936631
560 0.23548806130474825 0.7902523005537535 -0.3750466729837385
1776 -2.0553843875581124 -0.9315102082528577 0.4944220239921378
1775 1.2408221435169053 -1.5319764200994546 -0.21694901549756757
2211 -0.8013710613137764 0.2666218478432108 -0.9892187914409066
844 -0.9988173217690763 2.0475195974596008 -0.8283554302234277
845 0.48188440363960416 0.980527330083145 0.0790402406720406
1777 0.9814289115269883 0.3355747424524184 -1.406620072067825
843 -1.4186274690358165 0.7107467730958323 -0.006255839531128321
842 0.4956253305691302 -1.2730841415952066 -1.3571341100757897
3158 0.26366739527181426 0.02133704319241095 0.8020640991019641
3159 0.870434104217449 1.0098357417448822 -0.16189368261282383
3160 0.9962750496512602 -1.2951626408979358 -0.9217762665400719
3040 -0.3331583545179835 -0.0110252055094881 0.05681299578007858
3041 2.0308646018561234 -0.8520371860931856 1.4031077084247139
1703 1.9360062954611674 -0.7879399049293316 -0.6953105610607273
1704 -0.9104665185722913 0.215851250635626 2.388074542257809
1778 -0.16858259159434585 -1.1071156072932433 0.15328083824844774
1779 0.5204295804863023 -1.2498700796388644 -1.3089374370755802
1608 -0.38076300759534876 0.5508672481077812 -0.07036159908216374
3161 -1.8974918692789788 -2.983536933754657 1.6278565654534758
3162 -0.6361744089998871 -1.5887387137678617 -0.11615921399519014
3163 -1.318623970299622 1.0664603270921529 1.0715619741733442
3164 -0.6558737508097208 -0.9239970437655477 -0.20066708712280684
3165 1.6434627005858635 1.3158357264293858 0.6905925049167672
1705 -0.6585515987040785 -0.5540306978472029 -1.4290569759172813
1706 0.17927108752155002 0.4237420618793327 0.6693604217393415
1707 0.7487448380166148 0.4943545441782684 -0.6613312830496076
2203 0.5249221808542535 1.6967422108461518 -0.8145720864680756
2204 -0.7090214412475198 -3.0905570023997333 1.2307155379962098
1609 0.4670311910991928 -0.2511396412039397 0.9478460210989668
1610 -0.2378645649480033 0.22836288110215958 0.8934508191970445
1611 1.4126944912925417 -1.0912606076808422 -1.3018669304509638
1612 -0.38054770747195776 0.8251951920794574 -0.31924402311086714
1564 -2.641642828843361 -0.7381511672230139 -0.648871664897653
1563 0.9915402248473096 -1.1655965552428833 -0.28616877964409615
3166 0.033426851204344354 0.3135442580204019 -0.16116523529953758
3167 0.37438331278003945 -0.4654559938909115 -0.8940061867252824
1708 -1.3559097002573444 -1.2333476223371864 -0.6327608567548141
1709 1.0068954813149 -0.0018870141392780537 -1.4664739506023476
1679 0.9510376874266976 -1.3353561621473842 0.25155749280702233
2202 0.764279027752766 -0.5240288279684504 3.424509488608666
2201 0.15783120111293375 1.031896301688178 0.24555042750403863
1613 -0.08840180100502294 0.5823683327082342 0.6832152421672907
1680 1.9726343131600417 0.7647036090233342 0.11721726241949716
1396 0.10066675902782171 2.3070210170215346 -0.5051851707780363
1397 -0.19991285041782947 1.010292218601125 0.6556954814899358
1398 -0.36856231738528666 -0.3656365956107572 0.5916910153146568
1583 1.1869953902166663 1.7868966430403324 0.2139133655516562
1584 -0.4162732369430499 -1.316075120885213 0.5681636484636228
1582 -0.8423538457782049 -0.3198836572154942 -0.04353621334283357
4359 -1.2708221018738657 -1.8585768309700446 0.6627168932574885
1737 -2.144210309373264 -0.49368800373247396 -1.1729993161472243
1739 -0.40754571840349885 -0.9637470774781189 -0.13269237589193486
1738 0.5351496252832267 0.8885435365726843 -0.563138972190617
4870 -0.03977118331751989 -0.2486522715650939 -0.10946250493619356
4869 1.3160789464479086 0.6910315068195485 -0.2504788189913881
1451 -3.078815203434873 0.5232030918674849 0.10228000157895903
1452 -0.4635636999817381 0.0750265153950024 1.1884139224483703
1453 -0.6032995735605651 0.4710095657859173 0.47291780272941264
1454 -0.27635761639852946 -0.38096609107032675 -0.6917626492832
3148 1.2803344932127692 1.6266731752071264 0.9647422510498573
3149 0.7075486760340154 -1.288477172129917 -3.09724036311949
4558 1.7758526185313501 -0.5376722897441322 0.5598805573819531
4360 -0.9945398980501641 1.7061482996255568 0.7208075999719292
4361 -0.7877578129232944 -1.1993400130584244 -0.14374765127863665
1736 -0.9946209425962682 2.1248141537872227 -0.5926490016486945
1735 -1.7816589760760422 0.008721667275581158 1.0370957239122223
1455 0.281857834517543 -0.5880575127708416 -0.36980953513283954
1456 0.9263808793552489 0.5510833833151729 0.09927140145673852
1457 0.5196525233595128 -0.10472053191879954 0.9887484063863181
1458 -0.583463810700716 -1.095071003076908 -0.6417433532750179
4557 -0.13569702521739627 1.3314671650180365 -0.9104035945647255
4363 -0.5361976786121665 -1.0193728025077426 -1.58813370914008
4362 -0.3757327471329115 -0.3572102129138465 -0.13876155179135444
1734 0.47472129111479516 1.271541841870544 0.38700673512301365
1150 -0.03470711154576475 0.9838986665740559 -0.09509833155531777
1149 2.031980125092302 -2.4629976054808433 -1.4149107456051935
1459 0.18820780808689574 -0.04346504612932417 1.2515070232399177
4365 0.4752992391277373 -0.1290593250066872 0.17782408846734837
4364 0.8942144905786495 1.1875011516167768 0.19960911517692456
1410 0.2285380765320503 0.22207435483688695 1.9191840698137657
1411 0.8397824197778974 0.030118334282187437 -0.2621521108091377
1412 0.03446984068443013 -0.38541453335351206 -0.7981197313955305
2890 -1.035098963867928 0.5830339555368742 0.6012752657956911
1441 -0.1428233965957192 -0.4005303035806905 -0.06483601811845144
1442 -1.884647832141796 0.8213121920585847 0.14387712714014342
1443 1.1109877859168318 -0.3096756923112537 1.0571606168976597
1158 -0.6793078184340533 -1.9720384338577683 0.4879245418723769
2889 -0.1743997815090012 -0.8145148839005825 -0.08742103024348155
4107 0.06436899111258813 1.3314418438806666 -2.2940306424421633
79 -1.206105553953515 0.3394462072752865 0.46947380662009225
78 -0.6771284733866523 0.00541324881261583 0.5978372625799855
1800 0.3754624629211322 1.8065423721043694 -0.2574740064549826
4089 -1.2091118190344992 0.009876675401369717 -0.953464219665827
366 -0.6928633093009929 0.2995168109290257 0.9779757713443045
367 -1.7790206565499083 -0.8144487205558968 -0.20464883099982767
343 -2.347159332406178 -0.25064312248206844 0.572085286197571
344 0.6385980239795048 2.1837827660321296 0.625424914533639
4088 -1.1901376452192896 0.2172739233552901 -0.7853059509128759
4128 1.0465504281216123 0.6792755599027112 -2.3178251569133117
4129 0.0406060887089546 -1.0381649024290496 -1.5986136919978422
111 -1.4176698740636606 -0.3800192979732736 0.8842966120916879
110 -1.1409105307690035 0.7235866559547696 0.46507633922378666
109 2.0552941756383003 -0.6882847244620968 -0.5603041793785842
4742 0.12154274512363464 -0.5197677841611503 -0.7464631358205825
4741 0.12550502731837337 -0.5197286271066175 0.3055146874587297
108 0.3503579993580599 0.4002229305502142 -0.12301672620123902
107 0.7931900600499282 -0.7875688863413707 -0.4139868813649502
106 1.4390172198298623 0.8516294174061367 0.15084024852898614
4739 0.3646489343460325 1.8172223821247229 1.0599368997022987
4740 0.8459034474649485 -1.1213843127882412 1.6737043572245724
2664 -1.2044990652779324 0.32753005327405943 -1.4029824393247086
2663 -0.3438960603052612 0.9814587234036576 -0.9689899585945738
17 2.9037224702774758 -0.22624739427548943 -1.3145704570141434
18 0.5267018856379525 -0.7104010593749218 1.1264940526822678
19 1.3254349830917753 -1.3107751771238692 -0.18932353945732516
20 0.7974421388378179 0.5133369463296948 0.4412564500991426
21 0.5618428034927148 -0.585186402208005 1.2277267857449472
22 0.23089395754440478 0.566417766035871 -0.8403309226910483
23 -0.01739500072600325 1.3494353000657775 1.3233588361431132
24 -0.96806140154661 -0.8873750928009044 0.14670721122838307
97 -1.226600470763001 1.9267534805316238 -0.8987020087726615
98 -0.3169922482087866 1.0764010722732094 0.23386207996634656
4199 -0.9625695689057748 0.7046825295379633 -1.1498641414598856
4200 0.8110793574800687 0.5487904657986161 0.9788569390204998
417 -0.12369809588762504 -0.46940012128545927 -0.7571540643974399
99 0.480850926463032 0.11738823948752591 0.050517227620140825
100 -0.035070757855005866 -0.30396154001822967 -0.6913439779494476
381 -0.5131729578855099 -0.24818054937354098 -0.12489528255096201
380 -0.3673905492652516 -0.9635017578572542 1.0521413255838672
2133 -1.379712851822406 1.5837611222080377 -0.5600049072488618
2132 -0.06817152063378347 -1.3655943061326892 0.19535366484862313
2247 1.1652400950992567 -0.3063347858267406 1.5934620342215051
2249 0.11486926429226518 0.37256447437597157 0.08759394530814874
2248 -0.7315534535706988 0.4578947729925946 -0.5514100674472219
4196 -0.1883039784047301 0.39093997193819874 -0.27939228475510447
4198 -0.47465616739536065 0.2936663047355127 0.3492063693895265
4197 -0.8260223784625874 1.8338208375609422 -1.1598028140525989
418 -0.6012163300378741 -0.5972619430673936 -0.19598803330513098
419 0.31377287712858914 0.9829508195428722 0.698332824119552
383 -0.43038034246274826 1.580928243631245 1.2576612855560654
382 0.5370567558593867 1.2745381044872242 0.28533001333236985
2187 0.8404136953600728 -0.026403977765030742 -0.12744621788929617
2185 -1.6898404921265624 0.038200764134194265 -0.06199228245770266
2186 0.7637856864958238 -0.6547475741363674 -0.746764674889201
2246 -0.5748973216998152 -0.6836100985890482 -0.23225383857358178
4193 -0.8061299100667529 -1.331857176971632 0.7428297011658508
4195 -0.2445928756661096 1.0426848469099224 0.7825859260698077
4194 -0.528615770172765 1.8143181924498815 1.7200110834158147
421 -0.0402422163640491 -0.06703204162626308 -0.8707530612480103
420 0.6466727383249405 -0.5926176286475864 0.33110569125735334
2180 -0.26757192450816314 -1.059228248901909 -0.14182206497727706
2179 0.9766470321832672 -1.0245129067680414 1.767580707070382
2704 0.08851113970872787 0.8165873197383081 -0.23869316849776745
3068 2.531470419358627 0.04497109529397475 -0.7559501205558856
4205 0.2226172246074771 -0.9268776395457914 0.39409281909333893
4206 0.11500595094312888 -0.20619227411103397 0.30829824417301005
423 -0.33327195720576835 -1.8132692438610192 0.8468589068208332
424 0.6287716789066026 2.2601944198602912 0.21659886193730285
422 1.0846141005492096 -0.6444998812945637 0.8777714373925704
4657 -0.8588490869231871 1.1784210391521555 -0.08624422664344777
4656 0.2087114830622659 -0.2736280638268539 -0.6064985935997713
4655 -1.5500076365049729 0.7921472546463604 1.0995279768500106
2178 0.03000397654273851 1.6540428544132135 0.9532396125901794
2177 -0.21398018137969635 0.40018615900730375 -0.5423998354984156
2705 -1.635781499613166 0.8025560821179076 0.1974728948801468
2706 -0.17568913150704982 -1.9108418804405551 1.785742014170789
3067 0.22003650692669724 0.16923232566610474 -0.6992773012857839
425 -1.1950277590496068 2.467668896857474 -0.395012778427118
4684 1.2789889823634124 -0.8417620886624746 1.008753815250909
4683 0.46495829760841484 0.4416538771097327 1.8977857887486222
2176 0.2538314691596695 2.518009220810443 -1.2973748393316984
2175 0.3934619167460789 -0.052993487661140426 0.9381305480610109
2174 0.9836901743520525 -0.9650215486538198 -1.171709808727191
474 -0.2906216486277925 -0.8406511949400719 1.1435229864694667
475 0.7520696737218711 0.45133574237337165 1.7292899072714223
2173 -0.7205918885392277 -0.6899902486327746 -0.3637867698068436
2171 0.023400631273892927 0.8480299620437303 -0.12586889625335612
2172 -0.27085487323778157 1.2617684336414319 0.32126087785605195
2170 -1.585445584443333 0.4938715067608448 -0.38609563169650163
2169 0.3016153726335713 -0.18502622273915076 2.0870624464447576
473 0.5318902589429335 0.07536767431879246 0.13582732329637298
511 1.9937325290437216 -0.5925386369442892 -0.10775324709324752
2214 -0.3943612814662929 0.2269584875557229 -0.11062677526940157
2215 -1.077799848473581 2.334708522965992 1.3975260417770483
2216 -0.6517722225823461 0.1631392290957352 -0.709104958089232
3058 -0.9552705503836982 -1.0467687204223584 -0.05707455151161964
4321 -1.390264645680522 0.716445202644137 0.24983787845018585
4320 1.3957289203439083 1.3990534476093575 -1.0526192414234588
510 0.19272573012863675 -0.5642535500318667 1.7413989308475042
509 -0.771595536461062 -1.0021382151441838 -0.29379237938768676
557 0.92520299075285 1.1323910072773513 0.7793058695177367
558 1.701312911053418 0.3585721314934698 -0.9009134011251484
559 -0.9131789911862533 -1.8136953161787814 0.6667151806899794
3054 -1.400346481654334 -0.07800443283047051 -0.9807284024484111
3055 -0.13846940686557618 0.1548197909989756 -1.2393540067786137
3056 1.3582765420186567 2.3394933584267905 0.05618142259520931
3053 -0.42098803533594004 -0.3896407121246846 -0.2179357538564974
1604 -1.490897715654861 -0.8634958039030467 -1.178814359459687
3042 0.10228262054799625 -0.41961413276296017 -0.7859351907420158
4351 0.04160369582884185 0.7204427919219678 0.4971245272452962
1780 0.6270621956601503 -0.5601483192044691 -0.027515754880464566
1605 0.44399862713361316 -0.028192810968308432 -1.5215695541215721
1606 -1.6286072230484783 -0.06845845957751925 0.5300044050369676
1607 1.022813377749503 -0.8482549210499077 1.253888803433761
3043 0.6248140922459959 -0.3736618171167006 0.8980065934770572
4352 0.4078206454388026 -0.06880773473863523 -0.785586664961211
4353 -0.8979705247052914 3.1537684165584645 -0.5114515164326767
1781 -0.42324366713260675 0.16129291140249916 -0.08194372619260532
1782 0.11712736309061972 -0.8271846396682799 -1.3835827478422602
1562 3.085180873410294 0.13097749939520986 1.3737467973653883
1561 -0.05267505828412261 0.5116603248382205 -0.8733356409907094
1677 -2.0950626648860275 0.9720562139022683 1.2280563984466526
1678 -0.6084693982279701 -1.3574131452928604 0.19737831427408697
1676 -0.1301053008425064 0.9895138084592484 0.23994917492251508
4354 -1.1437622287004747 -0.33083182050523474 -1.0414651841788478
4355 0.6694110675095126 -0.5716304141559961 1.1566706922956593
1783 -1.0457954223562378 -0.6931968232502315 -1.416401360929001
1784 0.8245114532798421 0.5205515534131605 1.0123856803183273
1614 -1.3390464614153588 1.1750709496808596 -0.18901039572579115
1615 0.10363555732995439 0.1850609910889069 -0.49962376182888973
1710 -0.5648103649994275 -2.426214363452275 0.1264710710270697
1711 1.4551558879074642 -0.3720107941425499 0.1493165130149545
4356 1.0685071086430968 -0.8086908584899486 0.7196044003619959
4357 0.6230885492418746 -0.5151966215277812 -0.21205442696168045
1785 0.21626238825421604 0.17855008844003983 -0.1769878126252605
1786 -1.2463547956027219 -0.007265569779060718 -0.4738830977103717
1616 -0.2114126388796941 -0.9855943433320256 0.37279353200254584
1617 -1.0450755370845257 1.2562485437031772 -1.4444012509883504
1587 1.6395887871830803 -0.9650082051162057 -2.292969777856947
1586 0.5622982932871782 0.8195606769158963 -0.33040227345864875
1585 0.28892696998154876 0.4385357766824247 -0.509965977739733
1712 1.1401301329827183 2.27245144861766 1.4748796786378466
1713 1.8870977415834278 0.7468348140829925 2.548499060598728
4358 0.9194728734812911 -1.8002369604583814 0.6366096073909288
1400 0.47767694910075736 -0.1548492705269821 1.01530115973787
1399 -0.6182330687975426 0.8105523298664034 -1.6670915873105459
4868 0.8767945608764647 0.8039836795501416 0.6795834714316054
4867 0.36036814106604476 -0.21294436977739634 1.2372129272113943
1618 -1.1026057546762802 0.6040067045780475 -0.29033385921462307
3147 1.660871883800904 -1.9317762389012956 0.383038242154771
3146 -0.5646468554051921 0.3957707184141196 0.31412043252044386
4559 -0.8311927380176809 1.3501174318561817 0.3054252057504332
4560 -0.03351106314235012 -1.0827076547233787 0.8544280091240274
1714 1.8445414424245006 0.760647915283579 1.428924297971302
1715 -1.5070725193941674 -1.1236267192648557 -2.5411548937974855
1716 0.24319437950549483 0.8730988659246754 -1.1988284465528163
1733 1.5516313154055694 1.7681489143162792 -0.672357018837087
1731 -0.44450116692216235 -0.4705284498090675 -0.9815466079978971
1732 -1.0303879123445217 -0.23340156888222327 1.1662899783381744
1460 1.116674906328269 -0.05574936590990269 -0.506083527664694
1461 0.3888557740136709 0.8039581490861901 -1.5312697966784579
1462 -0.039018015441813395 -1.6404632140428517 -0.18244832333669805
1408 1.1317908221796051 -0.037243830851698745 0.44669449960476404
1409 2.417666563076876 0.22879721407935602 -0.407194868238942
1153 0.0976332303971347 -0.7767213306075529 -0.47213113633138026
1154 0.3413972128401419 0.927612760947105 0.16866303537948635
2885 -0.5806394464133192 0.9066517558768581 -1.0183283580952414
2886 1.5489670806954952 -0.5429895416616923 2.501510702612457
2887 -0.2786725939506968 -0.17514738243422556 -0.8797553812375246
4106 -0.6937988165200477 2.658603568485425 0.3453626539500524
1155 0.6379809052853733 0.4404810287814859 -0.9734031884445791
1156 -1.4527469130126869 0.3681496828199491 -1.6210280316584493
1157 -1.3829965019737962 0.03265777256529299 1.0810441071879366
2888 -0.7103419032804279 -2.9673096619631214 1.3522550066035517
1444 -0.8362681535995358 0.7549415735294184 0.28683246372619
1445 0.9472039976525342 1.046354277124098 -0.5424357822061133
1446 0.6139962446021574 -0.27549796218713674 1.7100406245503394
77 -0.677211456395779 -0.4210323313674149 0.6833584779788394
76 -2.298565101654809 -1.3577667696304165 3.173708893217984
1799 0.515264297079463 1.8373662611969446 -0.016425755819499843
1447 0.7583217686661704 -0.5679745530859618 0.14302812609280635
1448 2.0333421584073683 0.5809397880171601 0.3895784354203282
1449 -1.6468111951689532 0.34612991704168894 -0.6105193509789684
4090 -2.739176874780489 0.08620696689855517 -0.5546556158228363
4091 -2.3106838157272462 -0.7806638727308739 -1.0835397383071146
4130 1.0575266813202555 1.222233309548864 -0.28844862126656223
4131 0.22304245005943357 -1.8956025231075742 -0.4917244206378061
2350 -0.6234990481010426 1.1085976270053886 0.13156481466243836
2349 -0.13091019691094766 -0.4948495264169068 2.322385207551086
368 0.25730278968409503 -0.9111947159761673 -1.642354825681319
346 -1.706243961866139 -0.4851560886385891 -0.15613449355708842
347 1.4189232112150691 -0.9479252477935929 -0.31239893831133636
345 -0.1872791154018178 0.43279634364502817 -0.5705602452533847
4744 0.7459809765712128 -1.2993787462809583 -1.6662052300602763
4745 0.6181115997712114 -0.8940008359451435 0.39318723590149063
2642 0.16130277646794633 -1.3301770677779237 1.76017250982051
369 0.3743103505881211 -0.8630681782851628 -1.1374016341169662
370 0.05786868134104993 1.4235759207832293 0.7492906138478778
4743 -0.7381682667978549 1.3691884063282223 1.0482465660987748
2641 -2.5648491018192496 -0.3460610125941575 1.164288223733337
2640 -0.5214187453978671 -0.2084796483389842 0.9837113642009282
2639 -0.5176291851901338 0.38954775773780626 -0.9870233587045012
2638 0.4799127506920656 0.17624740472179634 0.0053732119833172776
2637 -0.759088460778652 -0.5395650256503579 -1.610330187173177
2662 -0.783331460791743 -0.547154656740936 -0.29950061259732913
2636 -1.1174638761819553 1.7186624527493484 -0.22706152012363712
2635 0.897232245930945 0.9532605118343507 1.286853264067609
2634 -2.7486693274633076 0.7118958144488041 0.8185693133251615
2632 -0.46019576347766133 0.6064898217600466 0.19489389191912637
2633 0.4029558463555459 -0.4532551742219214 -0.9113553265678616
13 -1.3966313396956314 1.124835196842475 0.7682887923488003
16 -2.294014234286241 -0.7712776853243094 1.0881434462815633
15 -0.2075857592425148 0.08077011483067276 1.3875780868171697
14 0.7231896401427967 0.19622253078220048 1.5271459645379786
25 0.9995135108385927 -0.17606892995565057 0.06534208684353371
374 0.3515064075559762 -0.38117785281196775 -2.5828294047901292
2661 1.8679206997959148 -0.048174148871931596 -0.4088186908999745
2631 -0.9295704891893166 1.0265237202716788 1.19588585465302
26 -0.350979565399644 -0.9232189270696618 -0.8850361923402839
27 1.0151630366793791 1.1501957310399433 -1.2974796644925404
375 -0.4556998896976428 0.6123513336634632 -0.9640425706393233
376 -2.2650933253039347 1.2359400606152509 -0.8359839473640243
377 0.645512991852628 -1.573373602010483 1.3423708543791655
379 -1.4929775857405667 0.29392459683501687 0.47146638166083155
378 1.5920532481480218 0.17439894483851365 -0.686539652102335
2129 -0.3818866348092903 -1.725361636127069 -0.4591368313999755
2130 1.0948232035138694 -0.8797005084920907 0.24101977065644342
2131 0.4739067499622011 0.46561163405389294 -1.2971800725970504
4641 1.189949587548193 0.7130892496210843 2.521714891910183
2190 1.331584033688119 1.7555169870322715 1.0838447179510828
2188 0.5989101948467316 -0.9176023586526766 -0.5524762590253316
2189 -1.3854813848942225 1.4470821016731106 -0.4537604894472075
2242 -0.23774002879296582 1.1028043685395459 -0.7080923627083274
2244 -0.927517182403162 -0.7222374922523586 0.3253458779718455
2243 0.09341355825837988 -0.3264400747800076 -0.5579783043172291
2245 -0.9851410422459401 -1.3423155101948292 0.2520045291129934
4659 1.194172166783765 -0.6108457443517136 1.4118388812836602
4658 0.0860631571085622 0.6180153992070654 -0.21908427159708815
4660 0.35880587017010346 -0.970082575521368 0.022148389881374297
2241 -0.09534212891585184 1.788784186743117 -0.5948548442005831
3070 -0.47486833357343966 -0.759426495968672 -0.27390223828192517
3069 1.8910160610276727 0.507418482552368 -0.6299251184387362
4191 -0.5351473377850184 -0.5745951843856137 0.1356691468627055
4192 -1.1619939732649351 -0.6778666308939993 1.349196630644827
4190 -1.8229552912147036 -0.049236531001429634 1.2174817026959377
4207 1.1374539676107538 1.089732387378317 -1.435127388991839
4208 0.8458596650715388 -0.8299685572476987 -0.2399989109117553
2707 1.2074887144432935 -0.3544198883053577 0.7255289709012829
4682 -0.3242369333016053 0.41827176797250076 -0.7581239093964631
4681 1.9599279030567014 -0.32394711180487645 2.8631520647335367
4780 -0.17932428811281675 -0.6250748436084064 0.08137376277439726
4781 0.05072781694412104 -0.9031064418802142 1.4523091260900387
4779 -2.250215135681782 -0.35121455962548587 0.934185237004588
4778 -1.2306138832192532 -0.424870223570035 0.3099955510112006
4777 1.6305859777873786 1.402068848141441 -2.8299175669940713
4776 -0.13453033959957045 -0.21974187167095863 1.2696699868423051
4775 -1.5189702637104592 0.48915930071636304 -0.7072036815551134
4774 1.0769135758244204 -1.535980373090911 -1.0292890547688214
4773 -0.5995057682273243 2.23852489282517 -0.30403802435813443
4772 -0.7253048659244086 -0.19607006737598615 0.13694410346637617
2708 -0.5893000681657066 1.2785748617363735 1.6343803896445321
476 1.8616568794372768 -0.48933485007770455 1.3088706813791116
477 0.6416240543850225 -0.6999703038103731 -0.20766004023129547
4788 0.41516572001224916 -0.1668389915514343 0.28411470919501863
4786 -0.5805651885151341 0.3608479717177071 -1.0997552716264778
4787 -0.19605131793789682 -0.5636356720235725 1.9595029768481578
4784 0.15149761302417875 0.28350963546425845 0.16350549990006358
4785 -1.2013235915701328 -0.4093814023311478 -1.049467855775176
4782 0.8763095201932256 -0.732828529933524 0.9449072584124911
4783 -2.1717064809702205 0.9056322354704259 -1.3006212059189206
4792 0.8797727774940196 1.0923456847733348 0.16058606726921976
4793 1.4621622887344057 -1.190426014179536 -0.49476035867958607
4791 -1.1361163002192762 -0.19418106285095083 0.24469340861856922
4790 -0.4268232921427317 0.9825892048712966 -0.37165630007985306
4789 0.575917839381639 0.44067002814723416 -1.3887160716067095
2217 0.8169373746657418 -2.0372474223714723 1.5293830920512663
2218 1.490677436544982 -0.3656139882868518 0.18551636729480753
2219 0.8598509233951739 -0.9969273015108561 0.3442312308069457
4796 0.07073154638694647 0.24788906196183308 -0.5007585513588915
4794 -0.020471037020649646 -0.4830950767457271 0.22932163121495036
4795 -0.5561370592051174 1.3002473857948997 -2.0571247078170916
4580 -1.310060401720015 0.9166774249955705 -0.4978829307474347
4579 -1.6203947022987335 1.1232304534511224 0.14660168678247265
4576 0.18447821594615044 -1.693443840935074 -1.025298112701544
4319 0.4837266339028185 0.8578409321476738 0.7073878563831627
4317 0.38112615172585285 1.2240521166746565 -1.2403164666851039
4318 -1.2278349530422346 1.0871012139214917 -1.9586029232507254
508 2.712343815328609 0.07484358606179312 0.6873580682052706
507 -1.985808268446113 -0.5669495778685295 -0.5861281559033168
4850 1.0860893912808156 0.17831605495130814 -0.6334639727086455
4578 2.9545540767992677 -0.18312293144617825 0.1573651375783289
4577 -1.2031053704822303 1.5158414713948247 -1.0069404248656166
4575 -1.0729751107672358 0.38559414558754473 1.6893548485352738
4574 -1.2658517070265383 -0.2657064179268769 0.157735234075774
555 0.19302278087349115 0.6291455778320655 -0.5072191428501197
556 -1.1413021224519608 0.13253936321429483 1.7562838182907683
3052 1.769912823330446 0.005983608597826484 1.5087933576472596
4573 0.8471479084004983 1.2020109551546432 -0.9124923114923951
4572 -1.0986174189029625 -0.21055852587533636 -0.8063393456223383
1601 0.809999735571041 -0.11925750645781807 0.4337284857285495
1602 -1.3536241956011892 0.9257416490822645 -1.5993762440327768
1603 2.353504005717041 0.5004757160557697 -0.3699973489597281
3051 0.10391292001907187 1.1664962879768677 -1.3613897164220683
4571 -0.5658582224654389 -0.1195908063542469 2.1027741210219215
4814 -0.6801547895648794 -0.5239267398736219 -1.3439130623656577
4813 -0.5256432877864756 1.0521171174590198 -0.9066467207193387
4812 -1.3882843543595045 -1.1549476189583543 0.7025703682722922
3044 -1.8459107780199329 0.468505633320995 0.19869650529346802
3045 1.9120062640464133 0.34439613412369574 -0.5618127117271959
4811 2.285428669843806 -0.17364806343100075 0.10897318632267189
4810 0.21822685438552447 -0.4720377256935967 0.44423648596736787
1560 -1.0453679995585838 0.7348675917843095 -0.5529416948295847
1559 -0.06824955650613995 -0.7218597898136487 -1.7720371800505776
3046 2.011302592013514 -0.05812948788352146 -0.10519802422894582
3047 1.9704682519993009 -0.23718123566573263 0.8596170696385261
1674 -0.34479779971125313 0.3296581403016745 0.13334564839807744
1675 -0.062493712135631624 0.5771348643346006 -0.491352035112248
4809 0.7616432498114876 -0.11701390405193336 1.2511660722383284
4808 -0.7671344930606863 1.2743599135189443 -0.6947469213504207
4807 0.4977007224163114 0.6978507063215189 0.6701402838906264
4806 0.7164832606704714 0.31234714779771533 1.2502860747233824
4805 -1.50317757217716 -1.7045617672825215 -0.11777441274546638
4804 -0.3174390463840694 2.4848720780851217 -0.6840658759927084
4803 -1.1039478748532328 0.607789367719272 0.0319314458457817
4802 0.1254263203603526 -0.7982970918703463 0.24314794105371618
4801 -1.0863121394067008 -0.22349063569906977 0.7825845700209688
3048 0.5739866923638545 -1.1965743465573768 0.7253379903866052
4564 1.2624638500404275 -0.5229704150974632 -0.13818271399490256
4565 0.788187153602067 -0.7465013400993612 -0.5047804116998125
1787 0.1360642560348933 0.6361580276748394 -0.5951773529443493
1590 0.6741871600744981 0.6975967373433508 0.49135061440137684
1588 -2.230387118473224 -0.09023800093758211 -1.0015970241602132
1589 -0.32303369198501414 1.244105321416298 -2.2440891972972206
4562 0.9288679533943524 -1.8466987267531378 0.7148926528195014
4563 0.9287564997805391 -1.7798379637139439 -0.2944252291739904
1801 -0.09332099406552005 -0.3474921763336532 1.2519763550994605
1802 -0.6965207647777119 0.3565491135906266 -0.1504469943967282
1803 -1.0308404268732665 1.0984308904303521 -0.8490370572287003
1788 -0.5822143506417075 1.396794122387662 0.3976382946185272
1789 0.4856524711692872 0.8708317058227174 0.6020749497023284
4865 -1.8559776427964536 0.8097983689503588 0.043922645446122593
4866 1.2441167483313427 -0.35947911702156754 0.31977159881296296
1619 0.07650201225839726 1.1897530982316171 -0.3822451724172266
1620 -0.47761378041201785 -2.183775856966976 0.1380704065896994
4561 0.6198470712418429 -0.054305429579222145 -1.0306249448919436
1804 0.1381129801941525 0.13435980647206852 0.5835354449735073
1805 1.8239778055204663 0.057484767252524625 -0.8941251472199007
1790 -0.7087984007458072 -0.8876760079397394 -1.087602316459413
1791 -0.05135113092657434 -0.8673324674056802 -0.2789491956311542
1792 -0.08096758829101358 -1.4853134002773811 -0.9251768186935554
3145 -0.33264433910081986 -0.31057064595663453 0.27274037080439634
3144 1.4704868647879494 -0.7476268797998734 -0.1822427856772862
1717 0.623592961983237 0.1202255385382456 -0.1231439878925939
1793 0.7258697283319213 1.8365759128123416 -0.11942243386231666
1794 0.6550796878257356 -0.2370901457518036 -0.02193048331388156
1151 0.32990308939097346 1.3844272587975996 0.46367326635634615
2882 0.17541026962779308 1.596677640121649 1.0528281407326894
1463 -0.8599973248581718 -0.058782988736222314 2.195935476970681
1718 1.1239628417654628 -1.0021439079764296 -0.4925302615520437
1719 -1.258648600009408 1.3194880970639822 0.03432897414521996
1720 0.49921744200536 0.165442489434456 1.3754807699466594
1721 0.7207601693467154 -0.7615473652613622 0.24649323379798677
1722 0.8955136973199024 0.35632374305754977 0.6082593118525677
1723 0.44140252902043053 0.1845217229134073 -1.3119130471801919
1724 0.00903518238054224 -0.19404459763139806 -0.8584488257467324
1725 -0.28115857361389496 -0.6574208797865081 0.024861728361727314
1727 -1.1497486275269833 0.8093768476417477 -2.452489935410383
1728 2.09573733355793 1.067312826701701 0.10969828010936601
1730 1.9716815337202955 -2.0591174611968226 -0.07863255376436487
1729 -1.4225607221507073 -1.1495570255319991 0.25390477116020477
1407 -0.30608773569698644 0.9494033875966182 -0.6120883868475506
1406 0.7007073557160053 0.6524886913265537 -0.8599225755869235
1795 -0.33451975149558444 -1.1462492290560642 0.21366369038855684
1796 2.225294317997684 -0.31812273984007045 0.4948082581773447
1152 -1.1703639598543703 2.8921052507526506 1.5008298015992116
2883 0.007845963235834946 -1.1691710068476253 0.711357450154776
2884 1.0019533362668698 0.8100034645716786 1.0375882731688018
1464 -0.6606232196568846 1.2184300631500833 0.4570599520757152
1465 -0.7918803567544096 -1.6901490177000542 0.6083927078414462
1466 0.60786744378788 0.31840111128240123 1.535357469563875
4103 -0.3832940088297623 -2.1217937923393695 -1.1372434068631052
4104 -0.510703012571772 -1.2091725141604854 -0.2775747710998413
4105 0.7756791183750206 -0.6631757217086329 -1.4453978505506817
1726 0.6427200254287717 -0.4938886435887214 -0.35648927222555676
1405 -0.5048776621616482 -0.9796236650503294 -0.9905934725080865
1797 -0.4926580714970386 0.5246427485417012 -0.7034500276329545
1798 -0.8442480429515945 -1.0364744378438409 0.7460881325804598
75 -1.2397900611968522 -1.1140849660942327 -0.5619964622227205
74 -0.300528630089222 0.5873227507027047 -0.2992012726775754
2346 0.9249945560846599 2.4027777733628195 -1.296424786893959
2344 0.6536641335808702 -2.201046494095363 0.4751655543418209
2345 0.12830290262240485 0.9699502566071504 0.5719080370864086
2343 1.6758845453415754 1.654946475602957 0.4695261448576161
4747 -1.436169480330864 -0.6647979417172406 1.7719257147601166
4094 0.1007408448444909 -0.9171729470310227 -1.4975491422726954
4093 -0.40055577556827804 1.5602091343303217 1.131414564317243
4092 1.7192657818935055 0.37350597754419135 -2.9730614597696605
4134 0.635672297962862 1.680442610679566 0.5428638058791163
4132 1.4036028294752485 0.3001415258573771 1.506837261128033
4133 0.988672174938326 -0.37553942781172295 1.5251184125841872
2348 0.6598811014049917 0.9511736845810813 -1.2762625711515891
2347 -0.4700509704612942 -0.15291897818176647 0.48778453488688156
348 0.26443638648234385 -1.361995546250932 -0.6280058694250581
349 -0.12182970976122795 1.473768094835691 -0.8198753603625436
4746 0.5188949302591598 0.747016329102885 0.039626079268140726
2646 -1.7534713199425667 -1.5169309802828193 -1.15394844060643
2645 -0.629482488514488 0.9681212435565436 0.13724032678084838
2643 -1.8547260723357903 -0.43587665310938206 0.18878610100686777
1450 1.332906201486048 0.31331597974586445 0.9981173200587493
350 0.13068461830417416 0.21119994898185301 -0.41230089237104484
2644 -0.23700924678718105 0.40688263511316325 1.2666787359102822
2425 0.32940415619709906 -0.0495317780916679 0.2592348065661042
2424 -1.600103509351714 -1.8055003814246418 0.3857860704972972
371 0.9820540479350682 -0.08659931100219018 -0.7596469100789098
372 -0.33059004969574113 -1.2919085951150113 -0.7377850200394156
2351 0.6530121937283161 0.22170134343560338 -0.6468944071872473
2352 -0.35236831948387715 0.9053946935032445 -0.21530932189721638
2353 -2.036445044364775 1.0765960609790561 0.04409444083415717
11 -1.0899799261596406 2.773050297216106 -0.666536933852604
12 0.13665522081335657 -0.03193853603191939 -1.6874733704386817
2426 -0.9599122206124607 -0.06993830273002488 -1.536492569292996
2427 1.3491069844427512 -0.4924766465977116 0.773482666952684
28 1.5502617382151647 -0.2548891064244696 0.9639995025328875
29 -1.7938414111045893 0.4639570059332458 0.950947337021609
30 0.41184830413378265 -0.986436678055581 1.963240814360874
31 -0.21761531068209916 -2.5076581175968204 -1.4359779350918385
373 0.5833510449318662 -2.84138145440515 0.008993613182661647
2659 1.5042676617175097 -0.3450337132357609 0.06254111765230522
2660 -3.2396847434334477 -0.29921328070324926 0.45111120752912115
2630 -1.2690210996507751 1.5185697394634785 0.06570433383252983
2428 0.01407664453240881 0.06232783241531906 0.5336854467436669
2429 1.775417616308503 0.2217302039009716 0.9508649880355747
2629 0.8085406787552216 -0.41193417304648094 -1.442016966594728
2628 1.119895553836627 -2.0962524532426894 -0.8853533918961819
2627 -0.4152818097447898 -0.8545849461635383 -0.034089445139317
2431 0.9812541906305082 0.7340757311235868 -0.09451634123846893
2432 -0.24230023829309846 -1.8727442911932366 -0.3802643644805839
2430 0.8450531132066075 0.4529862694210533 1.0824655682339623
2125 -1.0098986976306616 0.5888512886334918 -0.05325947157295474
2124 -0.3955125311225629 0.3205027761263445 -0.3114655309110374
2127 -0.7475596484502844 0.5721691494878722 -1.0281322664387174
2126 1.3583290806562596 0.30277676821404564 -0.28424063614407535
2128 1.0525027778596452 -1.8098571367840908 -1.032130564749608
2626 -2.5725438526205626 -0.828645055987031 0.28188382371912624
2433 -0.5336042800318919 1.5048633685504862 -0.6536243962409677
2434 1.4959425257729217 0.46263268288921344 -0.8574300889746894
4643 0.12897633374828002 1.0520723310637943 0.17646011768197542
4645 0.03136751591504739 1.9945609622995024 -0.3746587865431625
4644 1.0398165623538296 0.6979501765701379 -1.036427889242306
2435 -0.892416511372793 -0.057798614246233115 1.3789963582395215
2436 0.46169794386020413 -0.10056237495640145 -0.8176811545081542
4642 0.5552557690947886 1.532425672410807 -1.5767492903776876
4661 -1.3370244384698462 0.26600328491028247 1.0305007410893026
4663 1.4248702102440676 0.07541504535651117 0.7843142126969582
4662 0.23809600956115404 0.3696188129951668 -1.3786053889999839
4640 -2.620830129742153 1.2683910625716641 -1.1378185160642007
4639 -0.6661280704600498 0.429921410999868 0.5673939003161499
2191 0.4439016376642897 -0.5476291913982113 -0.7669164664012476
2193 -1.0883166025406787 1.015005169359156 0.6429501001326756
2192 -1.930955633263542 -0.5792424803313325 -0.30472119129900527
4768 0.3965597542627216 -0.5688375657540528 -1.121147526435336
2239 0.4960598809667036 1.379577248080216 0.8249276136438891
2240 0.45498128279972044 -1.4600601953975807 -1.195529701435594
3072 -0.33704871621360527 1.89459124440792 -0.08187422070767678
3071 0.3769602440401535 -1.3790763275378983 -0.5248644314450419
4210 1.4514498622368488 -0.4933378946628775 -1.5637282077475818
4209 -0.6739762168506325 0.2972384340437136 0.03927692187777186
4638 -1.408862789680674 -0.09042873105681662 -0.0815992287423786
4637 -0.14773909003339525 -0.10005939771986597 -0.5499510695495756
4771 -2.5462891314740452 -2.26993407347437 1.2232248631140574
4770 0.7525495862561338 0.27552335121549437 1.5580548826321554
4769 -0.14010909156403908 -0.5892807718541309 -2.0091975508240107
2238 0.9606967909415647 -0.56848669286875 -0.2883775804610575
4187 -1.1585758454817905 0.07124731180286525 0.25350509450707237
4188 1.4686940061605958 0.17409204181798552 0.4098933641684999
4189 0.3924108257751078 0.3519149753937993 1.6111728555062306
4679 -0.4206355322419478 1.1414946454344146 -2.4857032956273892
4680 0.5163335299210572 0.7982269847911901 1.8439004212737693
2709 0.3087314991109584 0.5583810654853406 -1.687343023226175
2710 0.8866799082799508 1.1799431362050803 -1.4293490522080894
478 -0.10614231042391538 -1.467237690533623 0.9944057902434051
479 -2.2385668071892817 0.6645599477948556 0.007825982298499262
2221 1.8343631390021897 -0.05540268299946627 0.4966836967610003
2222 0.6870828504042366 0.011391492791371294 -0.10660601028767462
2223 0.6202162043072874 -0.8137683632808096 -0.03916433847015818
2220 0.8507845903690101 -1.6352221192677343 0.6877037374904891
4799 1.6461527532056415 -1.6177731103671693 -0.9627268337868579
4797 0.05519301565033792 -1.306694357060043 -1.0596034129943823
4798 -0.7531133439319156 0.19263708085431663 -0.9494303878855456
1548 -2.562328678814072 0.5180673138362382 -0.7213003519021747
1550 -0.9210238106230758 -0.6649483506771265 -0.3670829959665492
1549 -2.135856222276252 1.4426844077000898 -0.36317339086244044
4581 0.1865185304803908 -1.9313993791142965 0.47440237570501553
4582 0.12135484108786923 0.19328072494346754 0.25352678845718146
4316 -0.20131821476936565 -1.3777326050063117 -0.6289416183610037
4315 -0.33956070869092136 -1.2719453290992888 1.0428258638368912
4314 -1.4395187897317294 -0.4294810534360294 -1.9873584238833457
4800 -0.010162464479730876 0.6626056222767732 0.5059777065789738
506 0.7740876661638579 0.6212337504509303 1.2248017539816647
505 1.6492235797018517 -0.6306038194711175 -0.4381129180097272
504 -0.6941690020943059 -0.8940556082452671 -1.9984690624087864
2100 -1.0522270231386024 -1.1117435892639493 -0.31991977024491747
2099 -0.21069069772691368 1.6800420209395779 0.14602111515398136
4820 0.3762025357448858 0.2198430627822754 -1.6916846145057127
4819 1.4321924693922403 -1.718850599156548 1.1449200097827177
4849 1.5041642315721753 -1.447472421247835 0.21053551317835323
4848 0.34938363694795177 -0.8363832134090522 0.9414270821692703
4847 -0.507199039491612 -1.2021852151216437 0.48920863521367397
554 0.4150048158407059 -1.207113971322431 2.10643525229677
553 -0.6397454972750919 0.23735796304370257 0.37076224519870354
4818 -1.7139794828076789 0.9549312376675517 -0.2942890258360993
4816 1.5400154090241736 0.41988383719853173 -0.7393668340447008
4817 -1.9298454129683105 0.9403509654367904 -0.8578223098675017
4815 0.08031454182204134 -1.4293033315638592 0.5523593724798799
4570 -0.5323979794712169 1.1266897679206571 -0.14875524298721834
1650 0.20024875839620726 1.3430236741714838 -0.5125789353084547
1649 -0.12146321902257215 1.373447353604651 0.6332329718369998
1648 1.5555813738853934 0.9679208322899703 0.3748940014758783
4568 -0.8275854375323969 0.33432988712494743 0.43219035064920874
4569 0.084725132056193 2.2459591594062522 -1.1043147582872526
1878 0.6873862143754276 0.13571566384520667 -0.6441544807898751
1879 -0.7485249115217093 -0.13639453673999158 -2.414567388184993
1647 0.26978628587273246 -0.8273383627653979 0.7878130229303614
1646 -0.29629096981640235 0.6660347067340961 -1.5116505956146309
1645 -0.20314323920110394 -3.225429052452494 -0.5043946361518473
1644 -0.3712661634042972 -1.3434591624874281 -0.17019319265155672
1558 -0.8724565368304217 -0.8081131387324942 0.8553511696370064
1557 1.0302285050139555 -1.9693651145366893 2.033136763716167
4567 0.7725704453285513 1.7991935342349186 -0.023676370662772478
4566 0.47814322140326304 -1.2199130165916565 0.7049167912287845
1876 -0.757221556139918 0.07434162690210738 1.3906709751118569
1877 2.5478828233759288 0.8255970736692265 -0.5120600346473805
1673 -1.1104805511126412 1.7409295767465414 1.087761774378918
1672 -1.2949280027993904 0.5568851582263579 2.221583717332489
1595 -1.4460385072945083 -0.29786406746838956 0.4566240409902339
1596 -0.06281528558893018 0.18927669746409068 -0.8465627640509356
1594 0.9611110494405991 -0.4321377868890488 3.847513162053007e-05
1593 0.2302500563509554 -0.20317730215422183 -0.26878672271512194
3049 0.5866595234772293 -0.5288100306864072 -0.9720022420277027
1875 -0.4109281226935971 -0.20459451095599265 1.4602172053721634
1591 1.0179363719806431 -1.6976883929164406 -2.627677503596518
1592 0.7148424991331279 -1.34689675847682 0.0680731138460906
3050 -0.6427853864427794 -0.4295248012510573 -0.8350688638612879
4864 0.7648617208624182 2.1831540390019555 -0.7337276325360504
4863 -0.1895986047508043 -0.6196446676294309 -1.0320697816519602
1622 -0.15848137288747827 1.4437014751349853 0.43553613405688196
1621 -0.3546441812915242 0.3596439769465503 0.430213184787464
1806 -1.1137687495456257 -0.0640378070205567 1.5742879552674764
1807 1.8100406572875025 0.8036060197742335 0.45029614365768533
1808 -1.0342068199419403 0.9763961599059061 -1.4071258922970427
1809 -0.31608740590565165 -2.225311147749917 -0.40167355320783427
4861 -0.5038491856747844 2.029247545481574 -1.576384069097941
4862 -0.06551673110103248 -0.5752771946372116 -0.47646064505571273
3142 -0.22626120748142725 0.9523287008056365 0.6173367747774603
3141 0.9331217560458549 -0.09531690562919556 0.31440669904038226
3143 1.8938589322451935 0.7160459974871147 0.781913677771395
2879 0.05236773633822853 0.1726725724529662 -2.365724710904097
2880 -1.1273273711189529 -0.1710533470407636 0.7469200684580379
2881 0.20509548989717072 -0.1498581987245441 -0.728609503191985
4101 0.15541502202666344 -0.3095177043846826 -1.558076229836851
4102 0.7126572246326199 0.3726247770319128 0.8601786229368964
1402 1.249413680694971 -1.9992987935266864 0.5182015709641534
1404 0.49230540870602824 1.151612187814389 1.1164279491370277
1403 0.20461259936471032 -2.494675583136541 -1.2901040858091468
1467 -0.5148998946799647 1.095154782254451 0.3254128678198479
1468 1.4235903423353564 0.15076494967997411 -0.1582735747808016
4137 0.03520625785345907 0.99243311532586 -0.5224539730038159
73 0.35949837909622867 -1.9342820872920823 0.21416736458891844
2342 1.3091443687899815 -0.9943732112107114 0.8798022431849175
2341 -0.19004767591672933 1.7536535742646755 2.166629266346109
2340 -1.2259621742169193 0.1920832683734524 0.14675239655122874
2339 -0.2529815122441903 0.07893714523998607 0.18514998093166324
2338 -2.165602183330963 0.0883345396144184 0.8641669148618103
2337 -1.689992650277877 0.6143662322485411 -0.46618493269991634
2336 -0.6483197448229621 0.20927420007609432 1.0415706234166313
2335 -0.2600838698045065 -2.515260533749364 -0.7957245023926616
2334 -0.8354896373003489 1.3850321082024584 0.7795907726615863
2333 0.5141646402606544 -0.9058924100723994 0.3745836720240939
4748 1.3992943590964078 1.2280255957828345 -0.3008445333289741
4749 -0.8074551189424451 -1.1967310819241717 0.45145618224879114
4095 0.3603524562497429 1.2362719415843109 -0.9837975215407455
4096 -0.5977981357623158 -0.4765173703131189 0.021729634044370005
4135 -0.8178710983153823 0.3661939573960684 0.09922069584525485
4136 -0.3022992137246571 0.41086081171130473 -1.0574257292755314
72 -0.35042172831123986 -0.5796626565910146 0.3121881592946808
71 0.5761193628765406 -0.4172386427346012 -0.8804507635882143
2648 -0.5531072224626971 0.5106852161500708 0.5944098672275494
2647 -0.6904833608219658 0.8983191108418879 -1.2255667139014585
2354 -0.7640913493938086 -0.2793352211284513 0.4839116907825506
2355 -0.6711443166631147 -0.24674140471577205 -0.06228433248399659
2422 0.5553798323943556 -0.04010569834730554 0.3511851276682483
2423 -0.5822107679298738 0.06804209878042135 -0.4094803976694586
2421 0.4764057199896721 -1.614707408529552 -0.8356687782810243
2420 -0.7796559617216743 -0.71799883236156 -1.088859119409629
34 -1.1222949400205129 -1.2205778652462944 0.7506554569740316
35 0.9570674148509936 -1.484385308184464 0.3054511328014978
2271 0.9812798953693804 0.3784441948859169 0.4002433611298723
10 0.3520686272091915 -1.601756969156696 0.7744872127326459
9 0.22688949634416733 -0.15930255055657128 -1.2051755535275572
8 0.31707574333259103 -1.0431261294255472 -1.5991716112912158
32 0.1656556943972856 1.7374895268527788 -0.532867328783627
33 -0.6683369663049306 0.20038890707442394 0.48859985812417306
2658 -0.4691619328573622 -0.44558315060740084 2.467442917290642
2657 0.9795663611690523 -0.5455307975742204 0.42268999266857815
2269 0.8157043736677161 1.8873576812126942 1.6558407503308534
2270 -0.7927928688667585 -0.1130089462677839 0.917115558953524
2027 0.9171393418713292 -1.4231638404131721 -1.3586302952218114
2028 0.10307763528361141 2.959708687969278 0.8872214632049019
2268 1.3438325919177043 0.2503883519406825 -0.1845223235945885
2267 0.19268475179551808 -2.241804334552973 -1.598186226270039
4646 0.36776960313585766 -0.22819688136566246 0.10824169992095925
4647 1.163968897963605 0.621861184002721 0.23179608971489105
4648 -1.2638362304088788 -0.6111247063188973 0.24747630897952427
2025 1.7899162411736735 1.2647569360154265 -0.5660745587887057
2026 -0.8815441589533698 -0.5035274375384534 0.2972104931195593
2121 0.39376188536301343 1.8428907737330802 1.5392525036492768
2123 0.17188048354445842 -0.46710000823383657 -0.648378210399734
2122 -0.48813897761337366 -0.20658807046306046 -0.8747277552595989
2266 1.540163473864251 0.19528154070153692 -0.30992968973743223
2265 0.7283472685710982 -1.0986537097440046 -0.4293237442440779
2625 -1.5452682010789327 2.081757442338803 1.75821749869318
4664 0.8935273031813069 0.7014771140674743 -0.2849387566696515
4665 -1.2982589816167691 0.46709103692277704 0.3437146670414073
4666 0.30144303255175675 1.1825658869690587 -0.32088595332527303
2024 0.21545830460908008 0.24023083738454412 0.12793856438083823
2023 -0.07580418418945647 -0.4000818864377017 -0.8080590711301061
2264 0.8784094874214509 -0.8053492407583618 -1.833214681375947
2263 -0.14611339567495088 -0.14683796926494774 -1.0414992466432167
2624 -0.5199146640594947 -2.5684335780838055 1.3048888298068624
2623 -1.2414749460867025 0.010879014533170722 -0.3685392278859586
2437 0.6185405285023429 1.351525647238142 1.0946917853967082
2022 0.03895796620165737 0.35233966669413125 -1.645187213311741
4765 -0.4044640562956819 0.565950317448214 0.20362911696177777
4764 -0.6770069506104828 0.7864098615013367 0.37267021678648693
2440 -0.6179032727578135 -0.7954601344514026 0.15197424839044368
2439 0.33695252361206157 2.093738189039779 1.314212819043592
2438 -2.6914184363302738 0.9624393809629235 1.957310797782946
2019 -0.427634619697953 0.6307123967554245 -0.49975540510608607
2020 0.9344168507286481 0.12666780646174028 0.8651943461156677
2018 -0.03728767192617652 0.23785804615162884 -1.0014412798034997
4767 -2.1636686507952247 -2.162240043313959 0.85716621478576
4766 0.33285508959780097 0.9250607286283773 -0.5817354066884559
3074 -0.4365498283800512 -1.0282123162223513 -0.13429640156914066
3075 1.213655749058082 -0.8152898889843203 -0.5671548768298091
3073 0.6669558089665162 -0.6084721102526056 -0.20004005998701882
2441 0.3322864613526736 0.4090662740616644 0.17588792725366278
4211 -0.1827795066081937 0.7822089692201082 -1.4079057935072008
4212 0.32174777306430025 1.1549101618707271 0.21316726072516526
4636 -2.5403551673802385 0.3921396684547519 -0.3033721112352114
4677 1.0457024564443012 -0.1548160570608193 1.9019567899523973
2016 1.1070281619323628 -1.7494968562916482 -1.1672041783295173
2017 -0.44194725187061723 1.0685711348602287 -0.19474837803340278
2194 0.2084347130985454 -0.06878046280835076 1.2830092004689868
2195 -0.02440910538392694 0.11809828875629716 -0.13971634674072833
2196 -0.763201693544017 1.4644563466461125 -0.2613866482753908
2235 0.1259149265680278 0.9055105529987791 0.44140010138308794
2237 1.2196989970990253 0.03307657350219892 -0.31097843796294583
2236 -0.10769580312076378 -2.181352068905259 -0.07595336581249379
4635 1.3295219847183484 0.3615634613232498 0.6442284599550853
4678 0.24629813231979641 -0.3149492159732481 0.23440652774945805
2015 0.18575101550203504 1.2870343200053633 -1.1538814937368338
2014 -0.8912323813001078 1.274098167395485 -0.0589965339554781
2225 -2.0960378878648767 -0.19325425288420928 -0.38909661870203327
2226 -0.9610744122409627 -0.30594244187280756 -1.2087372409661614
2712 -1.0392950358291544 0.8180909351254362 -1.0918028208954995
2711 0.6528160793464011 0.6742634174843376 0.6299410744411456
4186 0.312070768193454 -0.6796919955812541 0.06276701858386358
4185 1.0467822773659337 -0.2766456802056521 1.8392455691078846
4184 0.002228181065092368 -0.6893890082982235 -2.58240897606055
480 -0.014591869445586228 -0.7473161615749441 -0.14588762015471038
481 0.051166448431433725 0.004206428087056402 -0.9499160515367854
2224 -1.618448097085685 -0.31299051004443523 0.06984773804201293
2713 -1.7931343059020324 1.5845293206751616 -1.0780913765003128
482 0.8283890206948223 1.2681117902868313 1.7172764864616488
484 -0.6866226529364065 0.182703117795962 -0.6863148437178637
483 0.502477780845618 -0.8220191849686935 -0.15750229692163611
1546 1.116074414780363 -1.4598007153321577 -0.5346500435060408
1547 -1.1927124873645438 2.361379321294339 1.3146097237303875
4584 0.5300710402624428 -0.2749361477423237 0.8966064224525874
4583 -0.0260058153034778 -1.7085875762201328 -2.617388073188297
4313 0.16490960433365523 -2.002891363112774 0.38298307683960314
4312 0.898714798571981 -0.45603253388964926 -1.1172613672980436
2098 -0.0641339647937188 0.29306519866283165 -1.88374715636815
2097 0.046719987177321315 1.6502390518274115 0.7629932614371848
1543 1.053967769352361 0.1525341957476466 0.21343794217097992
1542 -0.10649181751791628 -0.502359612550971 -1.8047368896114793
1545 1.159615065927662 -1.6415352215320143 1.661745304693967
1544 1.2213951260628308 -1.8077921601102096 0.12112271732856744
4821 -0.8913560440174454 -0.11852846550231624 -1.017301940637576
4822 0.29261860255414296 0.9909903381369242 -0.23139035677030617
503 0.44609538988771014 0.9175810316630024 -0.8635156084340261
502 1.9930965314493352 -0.4962327710934281 1.1649163772448712
501 0.1825959192419905 -0.6972229702957236 0.1358403312581527
4846 0.5596440760143322 0.6553942288669834 0.3416265806083598
4845 -0.6824281745111551 0.36778950447345116 -1.2368928937761188
4844 -1.4651428605298615 -1.3013359872341617 0.9218502268827445
552 0.5572546687111 2.5423907628940356 0.46327390949740627
551 -0.5933084420999741 1.0881758882545518 0.5273746300963778
3099 -0.651773600546409 -1.208538872521801 1.6707498183017466
3098 -0.4708349661299178 0.6887155608489026 -1.9676519242730688
1881 0.5398417118751488 -0.6751465122028258 -0.20598844836750543
1880 -1.7377116612431531 -0.7309352117899511 -0.712672141520302
499 -2.2204204305887796 1.4052950451553106 0.22384139425399546
500 0.5282501208188402 1.5467492227363644 -1.550620825662905
3100 0.9191073062219991 -0.8202405871001995 -1.4284451614551692
1643 0.7471522874518514 1.0385643338378616 0.7751649326007741
1642 -0.46606459177156906 1.2004033584966294 1.5866330631922587
1641 1.0234141382389919 2.411129240943912 -1.2900908045536086
1640 -1.4125478753462555 -0.12900680098750852 -0.8047129782126666
1556 0.5088591345987223 0.06775634350432586 0.3857394004812031
1555 -0.2950731418066015 -0.16070981211946636 -1.236570408809661
1671 -0.7441834776888614 -1.3542813329054009 1.5837822462429079
1670 -1.382989970912557 0.2894243337831102 1.259795612188666
1669 0.32131988850758186 -0.016228530251393335 0.6440117674769191
1639 2.478919885815102 1.2633809723912754 -1.0461656533055896
1599 -1.8274202109846542 1.6478142056957936 -0.4727948860383646
1598 -0.7181425424323717 -0.2556176487408479 -1.8648403317934963
1597 -1.8461317876938794 -0.6213717736229256 0.34998934883771654
1874 -1.2087427771472259 1.9829713797701298 -0.00984569551225856
3126 -1.5856349581595102 0.03236110050154374 -0.24541437062421612
3125 1.0832234034712405 0.8384553920065502 0.18877094511063086
3124 1.23212495181448 -0.8701589223225332 -0.8640387619027771
1873 -0.6943293666785394 0.7450087786499694 1.365677902288476
1872 1.1974267743644869 -2.832918300869285 0.2955871143327277
1871 -0.4003582823029377 -0.3809981917660271 -1.0478175127878433
1623 -0.9129633585301029 0.7491427514744008 1.0494843652789678
1624 -1.6168463942859501 0.6127211244067028 -1.4160002867621304
3127 -0.922762423195088 -0.9609133529918039 -0.7460525763379021
3128 1.1476348549781445 1.0767754527253868 2.1064257975185225
1810 -0.6828499236052872 1.1405420951689396 0.043777238852658384
1811 -3.151184394269928 2.0625901227104992 -2.1795038814626166
4860 1.1403856155783014 -1.4312352244723647 -0.8075378500316478
3129 2.7335712480330234 -1.2385369447809964 0.5296379084157269
3130 -1.2123937065023238 -0.0855483275142816 0.08867415276131094
1812 -0.5934400478327193 0.10482259022276603 0.6609060230405067
4857 -1.1270961805277495 -0.5176966578087263 -0.6120181464741318
4858 0.4275790901915565 -0.21084870851801227 -2.159048145424966
4859 -0.8568365709695032 1.13737871801505 0.26699030418516406
2877 -1.4324630946660124 0.13075869196519369 -2.7632820707567536
2876 0.3137382237423609 -0.8884010445945347 1.7288421514466785
2875 1.2936841193200164 -0.6999858393472282 0.13016874746311438
2878 0.9771903039725204 -1.2213996675638452 -0.4106701607936947
3131 0.3295285049782846 1.2141511302054415 0.5226664066130113
3132 -1.3094971200456809 1.7672533051713695 1.7155336087415272
3133 -3.6261159874244933 1.449330751422195 -1.3484649484122748
3138 0.2536461526046425 -0.955629534377108 -0.4393492169606382
3139 0.050023095826527655 -0.20330227551451938 0.7117576310563024
3140 2.3886912185207296 -0.16532803695610745 -1.5185160849517068
3134 -0.34786260868281116 0.9469337125431496 -0.288429177463689
3135 -0.9803692852197718 0.7168406597547116 0.7871370776989927
3136 -0.3711764069791239 -0.6183238019656043 1.1232674989998965
3137 -1.2816026873065938 -0.6457544912704343 0.08798083750810046
1401 -0.7033902227416133 0.4819616978541571 -0.7581203533627309
4750 0.2983811577382863 -0.6009624667071805 -0.230247625912293
1469 -1.4829061171609113 -0.515380199910412 -2.0712952860404186
1470 0.4283358829461976 0.36958466993618866 -0.5448723778941946
1471 0.02564828479098971 0.5095799201753772 -0.9790928212039198
4140 1.0854826266853506 0.5251927995157025 1.2837816855531325
4138 -0.7899485786376528 3.949823832036572 -0.6463134398272385
4139 -1.4791039573391946 -0.7332679622731361 0.0903491294620899
69 1.9164496086947231 1.1068253454168202 0.0005965181742987602
68 -1.2687013628896562 -0.8098451118127387 0.03127150859700373
67 -0.15151494972913235 0.2338289785155419 0.2934459138978258
2332 -0.8271221455000991 0.26680466840924266 -0.16513378104745938
2331 1.7892496048238795 -0.06058071606439963 0.16312939964326045
2330 -1.2748757715083803 0.9893692787706151 0.8703373310919171
2329 0.415186590186136 0.3538671425983198 0.7530547428181946
70 0.6568710963704446 -0.08431520318223529 0.8417941635589081
40 -0.8900581557227999 -0.6980749784995364 0.0166786220464048
39 0.8206135657818366 0.22675599098586877 -0.6964657761586974
2650 1.1945984352123606 0.8756824302295354 -1.0684669879978506
2649 -0.2089904186215112 -1.737673352470217 -1.8527664022585526
4097 -0.6399556057573199 0.5345857755968332 -1.012749503361897
4098 0.22838052106309206 2.0863534091579865 -0.5010806262328114
4099 0.46907383345075737 -0.05831585735209731 1.2024912490176778
4151 -0.9557948192635083 0.1431623697044664 -0.5150305365322101
2417 0.04209310972104318 -0.5243771682273435 0.5249101320063396
36 -0.9243716060826982 -1.8043341899735275 -0.2132145518031625
37 -0.6770201481475857 -1.806834995955619 0.8994734421014288
38 -0.27389696850482914 -0.17160000048505442 -1.3539453221615505
2356 -0.68621762542461 0.7929793738175942 -1.4178272756408592
2357 0.9145175614846853 1.6509936452211655 2.8945569280628276
2419 -0.9122697494665504 1.0393236352973918 1.778595021422029
2418 -1.4843830069499881 -0.854859363210841 0.6928960779220277
2272 -0.2810288904550903 -0.3066970729036193 1.229191060058944
2273 -0.6395261469891136 -0.4679379607223121 -1.2134649104556061
7 -3.159910194499197 -0.037789071702212414 -0.93357318694389
6 1.608673076302695 -0.23220931083749063 1.860897618149784
2029 0.29300860659930505 0.6584025714547609 0.4192739573780133
2030 -2.800219761344366 -0.030265902155162228 0.44544096857928583
2031 -0.23198074110244832 -1.1447604188375764 0.7584541226562367
2032 1.136369434025006 -0.1996196450433259 -1.2537930252850504
2655 -0.8598139071162298 0.4139777196117801 -0.48800686082520073
2654 -1.442582788417115 1.3158024970765343 1.8202880575751272
2656 -0.9128365363221785 -0.7343455761414855 -0.5467182059334891
5 -0.77877923002889 0.03463815052157984 -0.8121617590230262
4 0.48620065181752836 -1.0879799584562528 -0.6836289054760568
2462 1.2288904945398995 2.244154378593217 0.0005873884948632245
2461 -0.7891840169119674 0.3891872816683983 0.6041573881638463
4649 0.1899377855457036 -0.2312336123659803 1.0762936398501743
4650 -0.8701346540870335 -0.12217032640483087 -0.751892245315792
2653 2.0128205396192427 -2.2407247727025315 -1.2391541770223093
2652 -0.7360892646432047 -0.3060201423303274 1.0255775193185137
3 -0.5059190542356098 -2.514217466719324 0.49225100164173285
2460 -1.823462043387692 -0.3325034875075794 -1.077619525342174
2459 0.6410559086087221 -1.3794015792355223 1.2127174963826208
2458 0.9203235359100105 -2.2108511894012053 -1.0652481298858472
2120 -0.6855523009230307 -0.43364225114015964 -1.107194512473065
2457 -0.004007333358758441 1.4990922635847088 -0.6957751891490969
4668 0.9702752692120138 0.21405613956287284 0.4534262608254589
4667 0.2827548938036814 0.8140415601660729 -1.750208962831977
2118 1.1054652878249325 -0.7649557524189203 -2.4060695808198904
2117 0.5323231568574319 0.5484686982158679 0.7826260330274828
2119 -0.9089097748994988 1.4798369903838635 -0.8484593598744996
4762 -0.8317359356172498 0.06999632984705699 1.4082517671889314
4761 0.5101562030016067 1.5531381071818007 -0.19514253650899846
4763 -0.30340814158425533 -0.11820378982083357 -0.5311454049625752
2262 0.3718992995484956 0.6867449179357005 -1.5495091788751145
2622 1.8538843646898395 -2.231954350869121 0.56659856728012
2621 -0.5418233084457693 0.1215374292105715 -1.2049477687295398
2021 -0.32674925270853644 0.11646661654242865 -0.17048061661524536
2261 2.7510351943625873 -0.06880462578793542 0.250692499777338
2260 0.4754983482110291 -0.06521654576494518 1.0728631938629765
2259 0.25622732714548224 -0.5384914301976657 0.7480610345144764
4674 -0.22292067905881224 0.5045361919524718 0.17742576067824234
3077 -0.17098276240744142 0.892202307284999 0.46166323594966185
3076 -1.3370560949969363 0.36213122319030583 -1.5644585759089553
2444 0.3001442432200833 -0.38855269188761327 1.5631719508247575
2442 1.40143672084637 -0.2224141701184753 -1.274376439455251
2443 0.8543912920756456 0.025164371971512584 0.13653820693737023
4213 -0.18840125400370858 -0.22466585153354698 -2.8570992231699632
4214 0.35420299657694476 1.0272179976881242 -0.5735334204592801
4675 -1.513348971599642 -0.11190386927379972 -0.6726273927681723
4676 -0.4909218091731584 0.007452767548902006 0.9136938458068359
2234 2.1386291925420626 0.4015658467798145 -1.326095270925266
2445 0.5912609533250177 0.17960052818512867 0.08644879326662937
4634 -0.5574446543411851 -0.21199233094144213 -1.0326740879213356
4633 1.950349838641147 -0.5378313531847606 0.049902057403276356
2197 -1.4376953175516831 0.10984894490704769 0.3912332819470224
2198 0.3393345224065696 1.1771044194989184 -2.969955873407761
2199 0.9006997572788756 -0.9861172033761505 -1.1243443684479326
2228 -0.8249037247389482 -0.733472930324991 -1.5688000382717575
2227 -0.2246110798584407 -1.8750540933162334 0.1980562468133722
2229 1.5272820836682766 1.2533842209774904 1.2716080753471461
2230 -0.20409028182528202 -0.6733522146666396 -1.742270635673324
2232 0.1139571085671156 -1.1598736533124987 -1.7010169225886844
2231 -0.7147455033331608 -1.6009657856677137 0.6424736558513705
2233 -0.14488264710596083 -0.1464257627453871 -0.29155419458337234
2446 -0.17552064860847533 0.6357329799726562 -1.2493593851863785
2447 -2.3669689047055296 0.21691831565357828 -0.847510668084977
2013 0.9869023512552789 0.6032627347543873 -0.39641743191363743
2012 -2.2040660360119797 -0.6961692110319169 0.328883591422683
2011 0.10575388911153004 -0.022080546174912702 0.38807424229132426
2714 -0.2027963595017402 0.027869832756462744 -1.0887943602918033
2715 0.4770485224616326 -0.033311854910927086 0.20594250989302787
2716 0.8153671655933138 -0.08241301414318705 1.0346503015476978
4183 -1.0194528327703156 -0.906235925585825 0.7465120077541614
4182 -1.263797497173245 1.915080264989406 -0.19302775339777703
2010 -0.9647081935350253 1.0159216751889695 0.507985095462109
2525 -1.9884474656346045 0.17069274343004545 -1.0752304003976088
485 0.7889086440133085 -0.5418672901246835 1.5024467464331752
486 -1.143052482903178 0.4986779744982045 0.8141381242623269
487 1.7073453053776455 -0.009681649915063706 1.0792251402926023
2526 0.8683404720902486 -0.9821773846111997 -0.9204866512189509
2527 0.49165732722561356 -0.6124798129974247 -0.2795692431979674
2528 0.5876190923281308 -0.3255242546490159 -0.12412765953348404
4585 0.4266639483610295 -0.665082972016698 -0.846702943873192
4586 0.3600527366347007 0.6578990340029781 0.34850761478180936
4311 0.6552930359562735 1.324363114995687 -0.5679072468992419
4310 1.7016628346132434 -1.0856549035617964 0.646352384680629
488 0.8892580631586259 0.07587105479742157 0.13253574016996458
489 1.0987780431562313 -0.4811295628447719 -0.13158562471376478
490 -0.2793074092708381 -0.6490665365961068 -1.1216425663610943
2096 -1.38231295693109 0.24081243884589265 0.8114877965761063
2095 0.49887495818983024 -1.0762915478866424 0.73938691857178
494 0.6791856982789228 -1.4672553485162767 0.06400366748813176
1538 -2.3976598658778396 -0.7041704879596913 1.4166505968591874
1539 -0.3245596107733086 -0.9117357802718027 -0.5905984543040601
1541 -0.3612816279593537 2.1332520469922 -0.022294389791223515
1540 -0.46535345733810446 -2.998196987733983 -1.2754083704717796
3095 0.2353211396978046 0.6521503468833127 2.5310900837604757
1884 0.2934402310538827 -0.6110354193468243 1.39757692234029
4824 -1.598024623265165 -0.3338784010609462 0.6297754734855692
4823 0.0002724738313042707 0.4591981907549107 -0.5740967969894085
4825 -0.2238764958245727 0.7847466126738688 -0.4076054975020448
495 0.17074260910843794 -0.24123999928019882 -1.6570436974570133
497 -0.868305262099956 0.964963263640676 -0.006068215983086017
496 2.2604723972883236 -1.4681736665690974 2.946960451763321
4842 0.830700977826508 1.3445004048404285 1.6090453567751046
4841 -0.357287638396685 0.5621618296140469 1.0696269252370243
4843 0.2640936475944731 -2.340370671596825 0.8203549378222824
3096 -1.2503737983231087 -0.845249991332602 0.32864421403743205
3097 -0.3299715078645026 -0.5280231646567161 2.1559523757838166
1883 -0.1542550570153482 -0.23095188520008164 -0.7798612791372979
1882 -0.5708895778217747 -1.233762715617654 -2.559583882999871
498 0.9604543686745947 -0.43400658504990375 -1.1965357524136382
2750 -0.4914616471530614 1.6977442435932073 -1.5114995208888586
2749 -0.6329446670770238 -0.022027485246060075 -0.077311467107693
2748 1.1116705044710324 -0.4374983453572479 -1.625638617030485
2747 1.695870761267426 1.4542386159974912 1.5673197254494953
1553 0.5302091341637852 -1.0362918428044758 -2.0067742207719044
1552 -0.05484043661601609 0.41994748029802537 -0.34492463874092216
1554 -0.8745285346241422 0.021694125053603276 1.4524490322530017
3118 0.6063998417573115 0.10409236833902823 -0.6466508311303465
1927 -0.3434127524952816 -0.07577264154962207 -1.3171996903754766
1926 -1.9250307125482893 -0.04784075934137594 0.35797183966219615
1668 0.5740892126121261 -2.638577900799009 -0.676918878221876
1667 0.2812797226548194 -0.9261099744718386 -0.8597993862415281
1666 -0.28425934516906015 -1.4759215843971398 -1.1177565496986879
1665 0.4476716355664735 -2.1999275130742597 1.9460385024525533
1664 0.035718104929261224 1.1315081819221053 0.7746513724005576
1638 -1.9778742194067365 -1.0822044574544796 -0.14953731300218498
1637 0.36658620424753363 -2.1169804513169717 0.06249593418430224
1636 -0.946214702267794 1.4941906178581676 -0.6427099367529681
1635 -0.5177789516151895 0.783683224278016 -1.2651646220937187
1634 2.164828725105101 -0.747061627594166 -0.331896202962494
1633 -0.048500332073052765 1.6298053639497854 1.6262338583676141
1600 0.3267904332368228 -1.263579647082006 1.0667885118160614
2746 1.5887380697456692 -1.9145017943986455 0.6837955175501598
2745 -0.8417711568682165 -1.0296216680398416 -0.3774980494585589
3120 0.35213338321471155 0.8564817602810145 -0.32101907606806834
3121 -1.2868893658803848 0.03283131832816852 0.9559284120889788
3119 -0.7246527690317642 0.7699938057642407 0.47230334535067225
1850 0.9152570142280033 0.49952112994444053 0.10954768336259142
1849 0.7011507380314447 0.7845505524820685 -0.051901280687928486
1928 -0.07870490184930622 0.102316731162993 2.119524631410594
1929 0.01618201687829421 0.24100108369778767 -0.19821997141353292
1662 0.10182664332607436 1.106316933241021 1.8826296785682044
1663 -0.3513744474237177 0.4706980863524277 -0.6490009701503295
1661 -0.2058868422256128 -1.283330456918334 -0.8231676357480848
1628 -0.22073192919734114 -0.9992173201298112 1.1431554683855667
1627 2.562010696136442 -1.1937868738798476 0.09602948722184838
3122 0.035653622036701305 1.058913693348624 -0.8214459576175609
3123 1.1076322210437617 0.14534230391908928 1.5093297418220597
1848 -2.2167487240949266 -0.8028859195212246 1.0390398231493336
1847 0.2851077560704879 0.4332172121466772 -0.06078118849337938
1930 -1.6678847570763544 -0.718054748973761 0.14238811174343854
1931 1.2688938311100213 -0.0235929356677691 0.7393067964291965
1932 -0.280166518691616 2.1255330670089263 0.5036202706949733
1626 -1.1812932546720685 1.2290102996773449 0.47431873640987654
1625 -0.5026154369308884 0.3192232802375029 1.7271186218350454
1870 -0.0552609811878913 -2.703376242543902 0.5009234617977107
1869 -0.6222258412313282 1.6787463901321507 -1.3812882360885863
1813 -0.49380349572087817 -0.8932033219270609 -0.5077377537257625
1814 0.41616082190144804 -0.2365020939204095 0.19341848217682317
1815 -1.4871536977066169 1.7568930219446057 1.0317056042708581
4856 1.1418038672889255 -0.40467738952456883 -0.14304247759081465
2872 0.4416450995012453 0.15291769059808993 1.4805121509292083
2874 2.2326755536319656 -0.769061971322146 -0.4208253930881166
2873 2.3730763930915466 -0.9201063464860193 -0.442361709056957
4853 -1.589520362440513 -0.4261350919307666 -0.1730450402669554
4854 -1.1608780343064917 0.6426856919853139 1.6581570300840964
4855 0.9500471507706638 0.6344480997593506 -1.5899839486704885
1473 0.5074826460975461 -1.0731364167546573 -0.8227906688084947
1472 1.1937830394463758 -0.40082898678023 2.473468908588411
4141 0.4018783646726161 -0.2899015602613116 0.498099430629844
4142 2.396922165281224 -0.617498502237504 0.4513896036913166
66 1.5197355492225084 -1.2846155052180834 0.91871688234673
65 0.01945050192781328 0.21235969867404675 -2.046025091467398
64 -0.3540078070939332 -1.6608032396397698 -0.7131075152923715
41 -0.17858582779831703 0.5697335133975293 -0.34697400697868247
42 0.7486242296414567 0.05809871819436163 2.425302092134909
43 0.4730261927399733 1.9087740651779521 -0.0030159132867873285
63 1.7409615593827807 0.7511516605362034 -0.5410322309913451
2359 -0.35511532131256746 0.0023880270642683277 -0.630812380723011
2358 -0.8394795042762917 -0.4244496102364743 0.6389377012476531
2328 -0.5644123730506294 -1.4427482586579177 0.1433497700989047
2327 0.9352704552799873 -1.5339983769406624 -0.1619671585841867
2326 -1.1635144715509314 -0.7584192899292157 0.19009457167684363
1050 -0.7522092002927754 -0.020971482284955018 0.5995054771207341
4100 -1.2505404959728397 1.0464720211615153 0.018555598969517306
4153 -0.49963447111774584 3.6230773191800147 -0.25160842769227454
4152 -1.6154127747927614 -0.8786599586841047 0.14802658041626035
2416 -0.7118463380831366 -0.3775969781562867 -0.40825816230300715
2415 -0.2412954104632067 2.181295768611047 -0.2987654208687619
4154 -1.1063195540106003 1.5315164070157843 0.24748912469006573
4155 -3.2570908031777357 -0.47243735843587764 -0.05205819604566679
2466 0.3911202200581089 0.0832151564213186 -0.38451015900330665
2468 1.9162381468452587 0.22232933373890146 0.18836483119174763
2467 -0.5647862498019991 0.7590383662467161 -1.1640247493629101
2469 0.5040841060012359 1.1211587216465588 -0.9309343400338815
2470 0.432949300291973 -0.5296831542526521 1.3917519280630672
2276 -1.968736326459155 0.19905153884060317 -0.12192591653911924
2275 0.325988306691819 -1.0496995920215504 -0.327289768294325
2274 -1.0606843344922747 -1.0355509902089035 -0.7933284660201605
2463 -0.47151167031455693 -1.0683444665118054 0.6739295960021674
2464 -1.9936721187767898 1.341963981157309 1.1377799795342471
2465 0.9090148711694611 0.6693053610986375 -1.2993200233401578
2471 -0.3426981069829973 -0.20644754652387143 1.1115461562442392
2472 -0.9101361894327953 -0.8071217808515615 2.1060588613956366
2033 0.5536554909264327 2.3377015046462937 -1.1538902976003953
2034 0.10510828650759077 1.9725093154448288 0.03769835583115773
2035 -0.8167777109884111 1.217194031657069 -1.5271196996661431
2651 0.824039485226321 1.2035572194873536 -1.459697872725425
2 -1.0126770652988277 -0.14053069608755298 0.2843796378340091
1 -0.24087133616620304 0.2830402455065564 -0.44659026381707234
2456 0.3580241400399299 -0.9080828278213957 -0.9532872712931124
4669 -1.0083558809394073 -1.0282090116873535 -1.1626436360016434
2116 -0.8822036915489291 0.5189793020247763 1.981342248045108
2115 -0.9208328024391357 -1.449757022172746 1.1598614996533723
2114 0.22933842863454254 -1.8125720331708788 -0.3484763733730404
4760 -0.41290554005963703 -2.14889659008066 -0.3955676135811864
4759 -1.0307453953114176 0.793376834014669 -0.6425143947688964
2454 -0.6747505917120209 -0.6241121460305152 -0.12565118143792406
2455 -2.713848906207134 -1.2234021947728506 0.1772536906635268
4671 0.54677892767023 -0.8661200820247458 -0.8068916345925718
4672 -2.304491356888091 -1.1880101456714705 0.17573158925055588
4670 -0.09367304947180514 0.9428214728974768 1.6168567040134345
2258 1.883678901359325 -1.5422718416921137 -0.338146551864297
2618 -0.18944943394168154 0.6962900057118289 1.0859761370904037
2620 0.18562055186061271 -2.4848218351846203 -0.18073765409781667
2619 0.3254634922352829 1.5179915676843139 -0.16306927344949437
2452 -1.1640949931949938 0.8990474022168464 -0.724309005847791
2453 0.9385452444280997 -0.36568093637643273 -0.4124678850957639
4673 0.0403016295594205 0.7064425253638771 -0.22319253098363853
2257 1.7241892121559939 -0.8008720791504106 1.0009927924675162
3078 -0.758667928154567 0.7738548356279198 -0.38035036657853616
4215 -0.16909028063433063 1.0245135071218059 -0.3271050009612937
4216 0.0009356458806442924 0.09340095618152194 0.001840344182629683
3079 0.8299068161691359 1.0333709714485908 0.9887092790343811
3080 0.6675574897505216 0.241520456423643 1.6334705012018826
4632 -0.14721525916763567 -0.3525352903273401 -0.14040309280461266
4631 -2.2560052720299524 0.6249627081330148 0.613486203598615
2523 -1.7451194884491694 1.0528494369859442 -1.1477923858469157
2522 -0.6523431097325669 0.017840389583566818 1.1615176930216324
2200 -0.7336385722926841 1.3215844695086332 0.3435398683807993
2572 -0.14232148683542345 -0.3571545309721869 -0.23559447134191028
2571 -0.013407128015176614 -0.3401133054779395 -1.3848783494218693
2449 0.5167461089999504 0.0982599370615165 1.5077164512997971
2450 -0.9919387170374347 0.8899958300642905 -0.23820156502504491
2448 -0.5002823740304577 0.6628086372931228 -1.6571165464537678
4181 0.6473193917040029 -0.9379180852812945 1.656815656878129
4180 -1.6847523902943182 -1.1533802552899142 1.0456661160930492
2007 0.03424098817955565 -0.06285504306411906 0.34896406877533115
2009 0.21936142564667938 1.2143713383508838 1.4536892405355288
2008 1.3273010226220676 0.8393896988863662 -0.714606963448542
2524 0.24527456672100414 -0.6218827289509632 -0.47502118511199887
2570 -0.46950458672678275 -1.732270731154865 -1.3351044486401609
2569 0.8619970829592776 1.2239924129399558 1.1152065881095783
2719 -0.5615297620131605 0.9544432348763117 -0.6411001921720986
2717 -1.4328287791233323 0.16541959708136655 0.6692847164926959
2718 0.020558474680306527 0.6895525086665056 0.5135894553154668
2094 -0.4439999535882335 0.9451765242111313 0.9451879165624641
2093 -0.36899015064129365 -2.566766668375245 -1.0631843767014808
2568 0.06905689832433842 0.2829049946941365 0.28091703174477844
4587 0.026415180529274763 -1.677928024894656 0.10575287638755769
4300 0.34812469607564644 -0.12663316430284235 -0.5525041549046334
491 -1.4309782739466193 -0.8514075357820758 -0.5094924042290321
2529 -1.024564889539966 1.1888270282665114 -1.7615844712844224
2530 -0.753136615153876 0.17409029592353864 0.14181543123558427
2531 0.008414028360188591 1.8290912382863447 -0.2548588473676956
3092 0.6026437964784661 0.08844679536162997 0.9904502409452411
4588 -0.2558393018310633 -1.0788789701778687 0.3779243212703305
4589 0.820912163647866 -1.2259249160679913 -1.2506550085345052
4309 0.6202210717608231 -1.059413429264647 -0.009283817039430924
4308 -0.3770421909785072 2.119138969227037 -0.1490634325526572
492 -2.1870196037062173 -0.08110108424498588 -1.483526770853812
493 0.2625581168775913 -0.2435363802980356 1.3675800197105055
3094 0.9825046873695403 -0.5417871767157123 0.920956608730491
3093 3.7033806751331815 1.7707278009501526 2.256556322366765
4590 -0.4609889237225612 2.9029743782128326 0.13330351014693803
4591 -1.253699933207237 -1.0689354284019754 1.5742762798555452
4592 -0.8513049751517966 1.0483118310940622 0.4395488841166346
1887 -0.755109986585578 0.4776325592332775 1.2718344793892462
1886 0.3916880029816004 0.1298028584514504 -1.6963411271549358
1885 -0.34990202352676136 0.9180879457384035 1.7594821010393842
4307 -1.3675087272181912 -0.031052043184012473 -1.1368947376063971
4306 0.3694530562553539 -1.6101345970935503 -0.4847728465199416
4840 -0.2021011282645215 0.18637425026718213 -0.4392385623554635
1535 -0.10124553850389575 1.1694334165779574 -1.0745377430187866
1537 0.5647193245075427 -0.22932984506520893 -0.9870706581613358
1536 -1.6458999632373645 2.265973519164062 0.2756738182507235
4594 -0.12587039037415482 -1.2157154798185519 -0.28806570109244917
4593 1.254162315046857 -0.31063720928201727 1.3435996783061384
4595 -0.9093740469013541 -1.6014937292277007 -0.3295800033746936
4826 -0.800590895799054 0.7822042980505696 0.7479829310227982
4827 0.6779000568830436 -1.6181466302298422 1.483332344337063
4828 1.0933993181760675 -0.4426949449393044 0.7412224574186914
4829 -1.1164191339934493 -1.3929197508379105 1.0183899427191427
4836 -0.8768046641636336 -0.26951585636095043 0.8470444076562095
4837 0.49341681542035254 -0.5734165751850271 -0.33025854071718064
4838 0.04662068922029938 -1.0428794430337154 -1.0264854334274596
4839 0.6340440007132806 -0.49832619798775935 1.610463221242474
1924 -0.017685209054658285 -0.9993918714554461 -0.5404358780993123
1923 -0.10140154618903653 -0.4879931933380154 -0.4346391318883046
4830 -2.181195118191157 -1.7899187095801699 -0.9981595880517713
4831 1.3359564706681424 -0.6794697344754065 -2.2804556837805734
4834 -0.2020581058408474 1.1601942120668136 0.21550032442478523
4833 0.8943179794192803 0.017022934176585167 -1.6938826956916202
4832 0.34955149291708787 -1.9147129572964001 -0.8747611871066019
4835 -0.17960472511218295 1.3767146975606814 0.7526038190450174
2850 -0.34134418093474805 -0.5152922874400493 0.9665856415684968
1551 -0.29736993962788355 1.4083915451327327 -1.5193894858346098
3117 0.009627809314357805 -0.4721547848944278 1.1402276476130908
3116 -1.5336359049800956 0.8399436042341762 -0.5526851161669321
1925 0.6791231354327293 0.4792124597354017 0.26828316825942783
2744 0.5133120663253641 1.6212724830166518 -1.365918159637086
1632 0.38676383093796385 -0.7086718911513469 0.841424092771915
1631 0.48878392400629556 0.4719829505101225 -1.005374536544567
1630 1.4977295331248957 0.0696110868582158 -1.2299876398152807
1629 0.6682891623586067 -0.5585471027405908 1.0113079724440595
2742 -0.02791150913724623 -1.5309467665685375 1.1975691001933657
2743 -1.3179331282115512 -1.4096507513957215 0.7822870189717874
1660 -0.9619838086970196 1.5836387422930742 -1.1894547308994603
1659 0.6241125109641027 0.4309149098300018 -1.1949273453131206
1658 -0.0754111953746433 -0.176462365707662 -0.6569414944158787
2820 -1.8123286692084892 -0.6966748865863813 0.2908835571520767
2822 1.1763514164522906 0.9302774904949358 0.8414453294937928
2821 0.527175491267218 -0.13350364297608466 0.565660508331369
1846 -0.09267756169914365 0.23641723438183346 0.46969652491632125
1845 1.957052170464963 0.42091293433335536 -0.1563911542252846
1844 1.7968371539860004 0.41423995394303725 0.22057615504122158
1868 1.1431540549354409 -1.1616683665099683 1.9223317428678597
1867 0.49705907631671276 -0.010282067362603259 -0.8350486097767726
1933 -0.7831483941702153 0.989422916551135 -0.1610098385498561
1934 0.3650496045235266 -1.5806405665108085 1.1126656682322842
1935 1.0767596596291538 -0.1727269459429034 -0.7615159799619757
2823 1.131146879301918 -0.3757264770759679 0.9609657877566372
2871 -0.6733961911490872 1.2003560572867997 -0.31101460147475757
2870 -0.9102357947802661 2.018996733678028 -0.24772869292486704
2824 0.5447415639186254 0.9280527612038554 -1.6650420127139702
2825 0.8550789559024635 0.5020167048366384 -1.6106837340148057
1817 -1.1459528747061063 -0.2566617352866316 0.7753839789508694
1816 0.10312146868972472 -1.6906488387188943 -0.7984446765687583
4851 0.8798291206833678 0.8667098770616599 0.3353403547563262
4852 0.016332435727792756 1.5537748868972743 1.2278457777628433
2828 1.0677161383407716 0.9259655119005147 1.3413911646808254
2826 -0.9785606785390384 -0.2852841605933026 -0.807647418304983
2827 0.3292292963265109 0.8973117869193882 0.27237469268999426
1475 -0.643102504709191 -0.7229908615856391 -0.3915365587288406
1474 0.9391249586629408 2.3858968744642426 -1.3427280555966834
2832 0.1671466434339853 0.2058076403648784 2.136909199070776
2833 -0.03978654343022739 -0.4661724053131905 0.9954705280961618
2831 0.7585966250942913 -0.9668480128008452 -1.3707199723553558
2830 0.9731338072158514 0.5078323984585947 -0.7328442976331517
2829 -1.3630165039513502 -0.16759874837179534 1.137794826631173
4143 1.0484124972622884 -0.20903931085725472 -0.35491027547896414
4144 -0.472479008602105 -0.013826974768448408 0.5250685478884174
4145 -0.1074311163153403 0.9721052388153111 -0.7031502901536202
2361 0.4624107950402503 -1.072589360918085 1.8528039689106568
2362 -0.5926450634045227 0.41424308290050765 -1.0171894309056593
62 -0.5477441914306174 1.1985633105912137 0.40228406043371556
61 0.2679856895895668 -0.15368536648231867 -0.09185514789356847
60 0.3714536637560115 0.048904993877046825 1.7697144241564184
2360 -1.0696435078116409 -1.610165948589749 0.862348725763529
2325 0.16466106587748297 0.3402613988514196 1.0592275227341554
1049 -1.3935668571575572 -0.4078122509672081 -0.3795234040934896
1048 1.8477021885334606 -0.09880011361108071 -0.8898725726088927
2414 -0.6597616377564768 0.5324238498248379 -0.8348215188119632
2324 -1.2737332000641177 0.4647850017968107 -0.034836203666400445
2323 0.3088713802765836 0.5926997107832654 0.33356397498186324
4156 0.4251417214343419 0.06714433941949816 -1.18277351160305
2413 0.86259811007339 1.3377885192411987 -0.20302510294178294
2412 0.22692867942328893 2.4188396414160334 0.9968866900502006
2322 -1.0501953440579417 1.547720753140681 -1.6247872763286182
2321 0.27383066986258475 -0.17911582783887953 -1.0296920712495239
2277 -0.1797740919095692 -0.356931342405801 1.7309007166988508
2278 1.3233302086514516 1.2133074126277203 -0.4081491897349472
2600 0.7898107765738791 1.6141194699993768 0.12435254916611405
2599 -2.0049750469091623 -0.3682775489850212 0.7347791014873187
4157 1.4432928522292072 -0.29609449503469903 -0.3720070095044614
4158 1.086875704060678 0.6423998229352885 0.9660803195547847
4159 -0.8635487795160819 -0.08671501694738712 1.539252212420774
2473 -0.1397181243546799 0.4250616108335596 0.004715120648934729
2036 -0.7077124146601905 -0.029463359778995585 0.6513112531730124
2037 0.7177286388712706 -1.8738485389510757 -0.7106016798413478
2038 0.350477556144706 0.5256236504314696 0.09791173169058162
2319 1.1668529563996957 -1.5883551153385658 0.5929784733605006
2320 2.1002788278203095 -0.8919029628819716 -1.1545888075223258
2474 -0.010261029444165182 0.23120801099124905 -1.2458339941477357
2475 -0.678191428302315 -0.8712041926402476 0.39868633501993206
2476 -1.8859753210866015 0.3261707849933507 -0.9331560830135711
2317 -2.501823810011138 0.6948351214426973 0.5076926852311158
2318 -0.21778814772400293 0.11779377173488788 -0.6510806502134714
2314 0.9992334951001405 -0.33541109515181644 -0.030101663326241868
2315 1.304859824451279 0.6436436957776439 -0.9409948798197303
2316 -2.082861648641673 0.4317978685178651 -0.24433137510797642
2113 -0.6087245142392732 1.824617757267657 -0.20741223934755698
2112 -1.259750351853284 0.7253262138977804 2.093478131250062
4758 0.35634405526883994 0.1995672537384083 -0.7237328042768215
4757 0.43632492588393657 -0.5962256038900953 0.8760734837285724
2110 1.3673989567172744 -0.2569021278048569 0.7398590194690804
2111 0.2715047420841881 1.6908222050824255 0.643632091822146
2615 0.3521430438813719 -0.07223603533759632 -0.8913756459001884
2614 0.43680396645410147 -0.39890114252928754 -0.601182061117842
2617 1.8486358349298002 -1.4531909505270386 -0.4164147221392794
2616 1.245103913880185 1.8899983684643398 -1.5488279633917015
2256 0.36181418368481066 2.946348360053697 -0.8711321886500577
2255 -0.6130111696608431 -1.9468282286166587 2.40114599444721
2451 -0.7722433708360359 -0.6214517248764655 0.09428132643146883
4217 -1.2746730189627908 -0.11787856181589787 -0.5902504427004547
4218 1.3394253545966843 0.3232145666706447 -0.2444542114281702
2576 -1.3780477774019433 -0.599205367758033 0.5098106285848739
3081 -1.200345689407522 -1.5048607212590557 0.1752055205212164
4630 0.01982390914081672 -0.5123977876386656 1.691737679768383
4629 0.8157736830211826 -1.0500309782030872 0.19967279729592835
2575 1.168025162975137 -0.34292754405720743 -0.35550169450568364
2574 1.8857042929544885 1.4050189604479697 -1.7154428429924535
2573 -0.17683157660422547 1.3147901905640276 0.506874986857609
3082 0.41950944738327917 -1.7835639654681388 -1.724031813467663
3083 0.048894363578648625 0.7039285146170029 -0.4754698459566535
4253 -1.142821491973793 -0.3444486797277059 -0.1461529678328292
4254 0.12037469928958766 0.2944518101996191 -1.3807184199099332
2520 -1.155952678809522 -0.5170664328250295 -1.216679964771871
2521 1.3606892185261328 -0.47726008305489603 0.6557537751928003
3085 1.0569230322667122 -1.1236126368215762 -0.751396718507827
3084 -1.672116727601078 0.5969803528832001 1.950398695207062
4179 0.8020809764085469 -0.8077742803487482 1.223595164259167
4255 -1.2467665408348871 0.6614965896527201 -0.699863128937149
4256 -1.46316015128579 1.661149505422091 -0.3070841855400469
3086 1.3639225267562296 -0.05286378223881 0.3573887504061367
3087 0.18808157620427543 -0.022776812383060896 0.914797566790174
4178 -0.9614897640999478 1.4465630536477434 -0.5718014131015514
4177 -0.3167589907983372 -0.01618830637707 0.4884006192985829
4297 1.5240500675480906 0.3424585626407845 -1.909556572773627
4299 0.07885350502318011 1.1319651458125994 0.3585592643279421
4298 0.7072756577190469 1.3187055850909726 -0.8309023005345206
4258 0.03595872098586053 0.016600446439899164 0.8623601944557721
4257 0.4854179738909856 -0.6463040177897138 -1.5101558704493536
2006 -0.8569926831510789 0.2722110689703052 -1.0675134917890885
2005 0.9233631415159168 1.1330465663324891 -1.1833315412821825
2092 0.06604343486025785 1.254871987215257 -0.3414746805844988
2091 -0.8818347072074814 -0.15079679833180865 0.33592124812258883
2090 1.1933282870989572 0.7785122466349741 -0.8123003138996916
2567 -0.286701640857384 0.5651502799748239 1.1624491593264603
2721 -1.849186166603706 -0.521816467488107 -0.008377870141979271
2722 -0.09054569759868822 -0.3201520671339747 0.929249449170028
2720 0.8471877238212786 -0.04243358838664156 0.15321045501037164
3088 0.8039978292838625 0.3488957495981576 0.45126239462693474
3089 0.09028943019331226 0.016938028715062253 -1.564963507280463
2532 0.2583601579345373 -0.8443603227332511 0.15589335726994857
2533 1.3406219068412353 1.9637090902676242 -0.4494292444729023
2566 0.007970447053691272 0.43159311376563225 0.04935256804674344
2565 0.1245086712714189 -0.2747661501864945 3.2260382842026125
2724 0.2243480912649617 -0.4310642884169861 -0.9940200355576071
2723 -0.39606605531546446 0.5292535084644487 0.14280375269630047
3090 -1.281312474560867 -0.3979323919940866 -0.3642091041633888
3091 -0.5203027452890684 0.40619636040564133 1.162917323394214
1889 0.10477427831701325 -1.380888596215447 1.9246701850898655
4601 -0.6046803253317219 -1.7097180421240001 0.32848382938963416
4602 -0.16693372094934694 0.5376698641950483 0.8134950610765752
1995 -0.4772083863851759 -0.36335698468848354 -0.45711398625666777
2534 1.764199650198611 1.9534230089014266 0.5208068087743525
2564 0.025203982000401068 0.7539859014149775 0.870834295720755
2563 1.9193947803800266 -0.014285530803774649 0.9818085903987742
1888 -0.26467134910141166 0.04517217360180703 -0.3218697352025609
4305 -1.8482107498058349 -0.42194741478410946 0.9380186776304714
1994 0.17814453406458475 -0.5061733186315364 1.8137920819360476
1532 0.19131568320308637 -0.44566683279337593 -0.1493643815027274
1534 0.2636840364230618 2.1638796370568625 -0.7533586756922334
1533 0.9462944778133835 0.007346803339389807 0.3375413002291034
2562 -0.004092817246571789 0.5207904712853446 -0.768128779030658
4596 0.05596082584672338 -0.3167603015984054 -1.6094511701141598
4304 0.28214829357141546 -0.7060111704417374 -0.6407059293003564
4303 1.764955019357585 -0.47067931454870027 -1.1654657582339103
4597 0.4635889270290042 -0.8035017065385147 -1.198464281466359
4598 1.1679600141495143 -0.03482697531780189 1.7459044356327804
1922 0.15919428142186487 0.6795186419867851 -0.6628334067895137
1921 1.1662945238648958 -0.2509049649313554 0.5793173248985503
4302 -0.6551443785806386 0.09235096355275904 1.147245378241096
4301 1.8427114535665177 -1.129464208867836 -0.45238053051757354
2814 1.0092834561263722 1.1861806946878968 0.4317953784772256
2815 -0.3262433401694295 0.0788317195723709 0.9490155327900094
3115 0.8283970473347918 -1.7195880104106385 -0.48981829031791396
3114 0.9222195047127293 -1.5938332983874541 -0.9258055529839211
4599 -1.001481730530177 0.17476488309906874 0.8030439097861634
4600 -0.5281042401223682 -0.44785787643577113 0.49340968506827043
2849 0.8763221029111524 1.0103850001173427 -1.1904636113992444
2848 0.5102704018615153 -0.37281087859186945 -0.14349414536176547
2816 0.7791110951394766 -1.1081662018865708 0.6505405784204933
2817 -1.2810682877036785 0.6403615793725763 -0.8187253223517261
2847 0.08254841436777641 0.2791057149453121 -0.004880954628239759
2846 0.056067663041675986 -0.7904833086953583 1.4287596900079815
2741 -1.0661648760351705 -1.3109740456640282 0.9743646216928055
2819 -0.34106425785738004 1.7869055524787993 -1.7027733041224826
2818 2.0202254415927037 -0.5434416469004686 -0.2759854283121671
1657 2.038259605262229 1.967075024227268 -0.8824531103455471
1656 0.050944862897509255 -2.153695397829076 -0.2185246109284071
2845 -0.20955120999942628 -0.05763700795372484 0.2193065528433427
2740 0.6695101369910713 -2.2507495315459365 -0.7318479539020477
1866 1.0333898741329213 -0.4798078517141803 0.5899828433782939
1865 -1.6836221134333331 -0.17319611128087375 -0.5220539905423252
1936 0.19513821188479719 -0.48332430836478535 -0.740956392806768
1655 0.37611025674960763 0.3378331854610821 0.798875702198043
1843 0.4296530795062054 -0.9007595553259461 -0.07375592609835008
1842 1.4785886868602296 -0.5237483137500911 -1.5694715230318756
1937 0.6187632899648106 -0.6767101597167637 0.21634068850768667
2868 -0.3758075148940741 -0.8765879695739677 -1.1688272082479076
2869 1.8291260688728774 0.22351534341573254 -1.1053434529209416
2841 -1.6488635177991278 0.5994324266014421 2.6048375303706037
2840 0.8971901356890313 1.4885891378980647 -0.45018208129454435
2839 0.0713235188620242 -1.5589916401756387 0.7450194047854215
1478 -0.19849334538648705 0.4782135516981619 1.0145152133032944
1477 -0.42377245211647246 -0.8043434472058208 2.466788686154562
1818 1.2037439593013413 0.26978142544420036 -1.2230485890741871
1819 0.2714408179042043 -1.0878608086909929 0.048830783654753074
46 -0.18818761027024225 0.5817001029019001 0.05877397207141727
2837 2.1655563778547187 -1.2936766699672244 -0.2131266048543554
2838 -0.22174779270217865 0.4732438082486127 1.7271029611551278
1476 0.6273644825772186 -0.26279795010725643 0.6005149578527532
1820 0.6038800879153159 -0.7577284913836735 0.3243613477493468
44 -0.662380626870509 -0.10663871702517716 -0.15522714783585825
45 -0.7777929269819568 -0.9289333679763986 0.39135925796698456
2834 -1.7707957326297095 0.5313014010049976 0.6291128703047456
2836 0.9773587362039684 1.1166568649356206 -0.09052813306544899
2835 -1.2216219276042426 0.8023921112510073 -0.6751627122341299
4146 -0.7963302595905442 0.13106802935978387 2.141864851040855
1824 -0.38256744838332973 0.9888996620764846 -1.0316787741112339
1825 0.014576733866994568 1.7761320523324806 1.7377966069819997
1823 -0.5928992452521978 -1.6100380571774175 0.4082178250490992
2364 -0.8448914235871919 1.6704642320741343 0.6089548689434358
2363 -0.9840435124717664 -0.6595565694149792 0.3592895606017133
1831 1.1941204392440725 2.034246909290514 0.39063758941308435
1830 -0.13011501080216942 -0.7425917135958333 1.1374735339987179
1827 1.25619367577927 0.1757718256582289 -0.666700767845871
1828 -0.05506683383875283 0.5701039279721861 -0.9257047292269992
1826 -0.5204285214980753 0.15462387938406968 0.3852376599015953
59 1.267418306395023 -2.0576777375636417 2.953975366434678
58 0.10886691224999318 -0.7988105276339688 0.022117789726366393
57 -0.4638674696043712 0.44370001739406617 0.5841712817931124
1047 -0.018654942658142187 1.32833111804707 0.9829432413638141
1046 -1.3378081321116113 -1.280247929372199 -0.27317041490788796
2411 -0.9175559973479633 -2.3720537189468955 0.30406459400019537
2410 0.18550434481064332 0.5459092446571256 0.5538209929480155
2409 0.06496713015610506 -0.02635266818125709 -0.5031761173719466
2039 -1.3820139474867201 -1.1865085031559257 -0.5459587156573787
2040 1.7584344818315227 -0.3287143243415037 -0.11867337317959886
2279 0.7041483620207392 -1.0834131837527543 0.8323128462963028
2280 0.415120133957609 -1.0054777634190524 -0.3801261284450056
2598 0.07314456973331568 0.5242486339187518 0.2594421516592464
2597 0.5478556776461855 -0.24572111149419518 0.4168744535204053
4160 -0.40019088792065277 0.8719267025365371 -0.3718210935545889
4161 -0.6900494837391692 0.5281724869958773 0.017459381824162873
2596 0.6545288117131097 0.8043828793121821 -0.4096026100198036
4163 -0.9701025833857612 -0.09316686421786413 1.4527029732501144
4162 -0.5037288288764676 -0.3603811358604521 -0.1594897550696281
2477 -0.6803787563124134 -0.19274858284199142 -0.0971897003901361
2478 -0.5215423141076148 -1.5653419894197504 1.2335343833520866
2479 -0.8268897104020384 -0.944489598751669 -1.3957688314150312
4166 1.709265738537035 1.8054047704376022 1.009163890981734
4164 3.0829943297997158 0.18178865809644607 -0.2677013779522253
4165 0.0927823325731037 0.4164719953301345 -0.5883103939215717
2311 0.5790504855428061 -1.3099328714577445 1.8322673003507637
2310 0.4751140458295953 -0.9206461155609286 -0.06144450463866147
2313 -1.3678486503328973 -0.6443547127388664 0.07797067399349317
2312 -0.38864162575368383 1.1926826084868547 -0.516554936518136
4756 0.7667227098831525 0.23428534586740019 -0.913711559933704
4755 1.3060894634030182 1.499846899120975 -0.2882317819891582
4168 1.1498257680542532 0.563102255354353 -0.47940383702762435
4167 -0.6241027369324443 1.116804005125177 -0.1892724326881541
2108 -0.49003231957435184 -0.44717661734221137 -0.14689271930878892
2109 1.6141194661734364 -0.8842663380388373 0.22079930922519325
2309 0.9853993261600484 0.2672983855958694 0.03573406320400724
2613 -1.3839504126551148 1.1812473604294325 -0.856245709817582
4169 -0.7172832319298859 -0.25905409710218885 -1.5642714855366595
4170 -0.20984917681798332 0.3874569090183712 0.762029641414209
4221 -1.4526839620305267 0.9863422085302432 0.5247655311566142
2105 -0.5535185033109231 -2.215838019155382 -1.140336250353194
2104 0.83317904334312 -1.2729655523622863 1.2319228388087415
2107 -0.40440893672956313 0.883685501829033 -0.8463218634579199
2106 -0.6480753634316776 -1.235912932176136 -0.7681118304509309
2578 0.8574224193830965 0.14268449356968366 1.5141224078128444
2579 0.7701465946666692 -2.098781502658698 -2.464819457697174
2253 0.48401157653783 -0.32794444371715403 -0.3186731613973165
2254 -0.5576110606411456 -1.1446704515298485 0.09450804475253193
2612 0.40817409874004906 0.14141993966103175 1.1919037334063154
2611 -0.1486450362704202 0.9530870834798272 1.120124462889056
4171 0.8951921554628809 0.5376632446471613 0.1257674651685676
4219 0.01839955973156643 1.2309412312816934 1.1238704088742004
4220 -0.2966464610923339 -0.4396208831162167 -0.058153096742460886
2102 0.7653788498074959 -0.8958307764261054 0.5173196775096605
2103 1.0853823637814592 1.9688993482709447 1.9424005743123465
2577 0.9110599217292816 -0.5339431611516137 1.129289587991818
2609 -1.1717915270257802 0.2907814302092192 0.0904675012607914
2608 0.6903146352029184 0.44689166703015604 -0.42193349230089194
2610 -0.7251902461244976 0.34035530687054794 0.28630855958148443
4172 -0.9340408510372239 0.9874304944560772 0.7868882718596008
4251 0.05050232930736426 -0.7749290901410137 -1.641824107391419
2101 -1.0744627934231756 -0.23601575950886758 -1.977444705638254
4950 1.1030167772885073 1.775168940241172 -0.4218577263043538
2607 0.9976895116334888 0.2000979827405205 -0.3861305358800724
4174 -0.8653871424414301 0.646250722196746 -0.373412942340138
4173 0.4348938237050887 0.12342154031338345 1.1515617323782887
4252 -0.07410494262746682 -0.5335597433866992 -0.6651665709187043
4628 -0.9728878723445982 -0.6773915937574494 1.2555810229649917
4627 0.48322327049900105 1.0373286685866647 -0.0859933564093604
4626 0.6195235607297901 -1.2915468211730343 2.1845973121808715
2519 -0.17961756459023362 -0.3467342310095796 -0.6627566255018958
2518 -0.6080765584632561 -0.6162065987692277 -0.12219426441829893
4949 -0.4778848945415586 1.6517368238934327 0.46955417373277436
4176 -0.31975690073386753 -0.13671050280109423 -0.4026841126287728
4175 0.6026305947053525 1.4121282686053274 0.2614368924742055
4295 -0.14719691597835025 -0.799894478614897 -0.14363505019429446
4296 -0.5730028572362835 -0.684997298825488 -0.7335245122066905
4294 1.5478949194105165 2.202490384528136 1.1181256016407124
2088 -0.4687450241364788 0.8600444866353605 0.016435602409923415
2002 -0.3408515715010759 -0.7225983650154275 -0.17280654444116678
2001 0.46601754093518444 -0.3123722999279774 -0.6509293233021087
2004 0.6967796049160957 -0.4793849747760563 -1.2471579994488906
2003 1.0061717557113874 0.28516651843806223 0.1632974714359735
2000 -0.3912366104188615 0.46929785313694355 0.1138801803432781
1999 -1.6813921270509165 0.7177899621573025 1.0752389767448571
2089 -1.4245357872338764 -0.4166031054525923 0.170451275301166
4259 -0.16718982427726237 0.40892881501872647 0.693327623774197
4260 0.7119456932984625 -0.29836277230480257 -1.6625057217565136
4261 0.6563294505575603 0.301900212223694 1.2974820390724986
1998 -0.35414806395544074 0.21227480407729465 -1.121072198712804
1997 1.4610230714021502 0.42887183376286037 -0.07396105066842325
2725 0.09186737829887756 -1.4608137144128344 0.1843207338351084
1890 -0.38831619450209237 -0.12565283958231305 1.169693192014446
1891 0.0636631324733147 0.8711877358651188 1.6952953281119274
4262 0.33028602854561867 -1.5832649093374833 0.9833777499442421
4603 0.20456880944424174 1.1446979076242887 0.7226965590879084
4604 1.268110155705587 -1.6918714377846238 1.0056321652756472
4605 -1.034241200395611 -0.7152065588071239 -1.968149546233677
1996 -1.3189153553425874 0.3301478465235091 0.57289883999233
2535 0.2966733341889638 -0.3163019338982844 -0.7296132776211617
2536 0.7121186267801333 1.16666791480685 0.26075585794642747
2726 -1.5466273880224046 -0.554981665053953 -0.7208696830450475
2727 -1.1343689717888406 -1.284142837886479 -1.2830892804394212
1993 0.4336565710555653 0.40938712634287894 -1.4906898880005697
1531 0.9899123785660466 -0.3524555987640814 -0.17463033897424166
2561 0.19617129731712274 0.06205123857184566 0.019187354431646347
2728 -0.05561216590319848 -0.3822806891709537 0.916584627693491
2811 -0.7724098053856505 -1.2418632440021888 -0.17998749484189813
2810 -0.8607775836900872 -0.8876829854676406 0.9619024911946883
2800 -0.9044506406912662 0.6691152330795229 -0.9796272827439463
1992 -0.02043263247085539 -0.7368347473211576 -0.6742058839581562
1991 -0.3103072943482087 1.0367003283202674 -1.5509318958456417
1990 -0.11889656629283207 0.41267805846276023 -0.7449764555871294
1530 -0.61445167208143 -0.6066998641073409 -0.5180824252121055
2559 0.08416582344503631 -1.003449493225382 -0.19803732199368057
2558 -0.32008553405861156 1.043742883818296 0.08617012103959971
2560 0.8352323697734187 0.35858725005587117 1.1458110668176475
2813 0.7475474979397305 -0.057889658035433056 -0.05762261970998018
2812 0.09643092669308861 -0.4748698392027043 -1.586403318825019
1920 -0.34064505036435105 0.8251877333255608 3.2269869989781528
1919 -0.48632071161022206 0.17619991837397356 -1.1743128356273504
2556 -1.3466486762436345 1.0917431878559125 0.6356025207840212
2557 -0.36049250699447444 -0.15044733587697243 0.4756931578192265
3113 1.4794336676374509 1.5604037869212015 0.36061580905271073
3112 -0.019723771394987877 -0.7693593981250605 -0.4562504272430243
2554 -0.4355704924299166 -0.40330926046147053 0.052803103533469065
2555 -0.3799789248111643 0.49332779819928985 0.9770889842132433
2552 0.9470910497290501 -1.309425944932967 0.599094878574645
2553 -0.8867924929859328 -0.4195735626514629 0.08096924703286046
2738 -0.18899814670174 0.9911347906194521 -0.45144608085703686
2739 1.2101540694297668 0.008305330860609833 -0.9459550346210265
1862 0.38888480169100953 1.2418322917689395 -1.4944476362093722
2551 -0.02007839541162086 2.270109093030834 0.11924818776171497
2844 -0.1458203527464955 -0.270870509084406 -0.4450587993950772
1481 -1.3817728818108792 0.3525789898848152 0.4265214203303588
1863 -0.5475523222299564 0.4847118263977719 0.30757170478880747
1864 1.1368270106370917 -0.9729646642397585 -0.33936121647829254
1978 0.7003396035345026 -1.6602241779064995 -0.6825484905836785
1654 -0.6873640936490539 0.35636915084917065 0.10541104840203049
1653 0.14291071003189754 0.9754120211057555 1.3450232049434696
2866 0.1316890844597963 2.3209114034925515 -0.23266574199914766
2865 0.3723339677514844 0.9400828704524886 0.38496913184345105
2842 -1.7429975406764058 -0.08425932198576347 -0.059087158219929714
2843 -0.35962052342318274 -0.28442268297388745 -1.8091124741533968
1479 -0.9573610653449078 0.29622524384053806 0.08644913248123681
1480 -1.028718540969256 0.5769165461722544 0.1143091766336253
1841 0.6966441816605236 1.4716621858005732 -0.9726557139762906
1938 0.13256639809481874 -0.5970601984831392 -1.0639795669198913
1939 -0.8114279416873866 -0.42517155887445013 1.3239803657947065
1977 -0.8629476995025809 -0.6172165807345488 0.6702221825201194
1976 -0.8968263868223747 -0.41656270164339876 -0.19706593180262422
50 1.3803171279074398 -1.4897077725204968 1.1545678121764362
2867 -0.9264147076425554 0.7213261984900696 -0.3151385381400882
1840 1.702865828718215 0.9021076136067279 1.3413908615387726
1839 1.5757658288222696 0.16279526338781328 -0.23182321158722885
1940 1.0925031203147577 -1.4585965573702515 1.4381674067793357
1975 0.020765241782815164 0.1846578452561785 -0.32710392596680776
49 1.3244797051483277 0.05355563589963977 0.7740107368661856
47 0.5414669630541769 -1.486095957762592 1.4911452255277515
48 1.5249257746172713 2.2757389331430313 1.0684406643750493
1821 -1.5946074538949258 -1.174057761625205 0.28285504382517374
1822 -0.12731344265926767 0.43521808860990396 -0.5047585363959639
4147 -0.8326233662098539 1.1535034750596442 -0.09286708195703511
1835 0.008324406070299412 0.24066980052559409 -1.6084100571238589
1834 0.360064175101699 -0.6813437892798802 -0.7451123894152969
1970 -0.20744936004283537 -0.834159439288126 -0.6898944363146163
1969 0.628339630434612 -1.7173673012307105 -0.023187472136298126
2365 0.5179532692257863 -0.9712719358177062 0.32303634345689514
2366 -0.015396902345622077 0.17310503383164422 0.12346331993685891
1833 0.27377579737712776 -1.0371209219533757 0.11376018496962936
1832 -1.3238550795636068 -0.07800672139924825 -0.6595685928336376
1829 -1.8145786722788622 -0.9691040168138709 -0.09478502066831498
56 -2.787093080854077 -0.2611406437964298 1.1148295984440981
55 0.9820729274514621 0.5541338434041158 -0.9846909473261898
1044 -0.33823817216983876 0.06323513800493635 1.429083084871727
1045 1.322631419535085 1.1034686557168178 -1.242386510775438
4241 0.4277428989893015 -1.714312619498425 0.04476455473766988
4240 -1.1069908186424995 0.8839449661624847 -1.1337819566441023
151 -0.3116210059062571 -0.17905958239151587 0.005484529367674795
4239 -0.9638286757730866 -0.8834022389555619 0.30339662583126453
4238 0.5381469377430234 0.18136643612097345 -1.952176960633844
4237 -2.12574516898613 -0.19235185288620468 -1.9898992371695587
4236 2.120988688933285 -0.6096097422120074 -0.39248315015252555
4235 -1.525261523277022 -0.23871549823046379 -0.8923628573018008
4234 1.0838695390600286 0.7961235335910377 -0.5092763180313044
4233 -1.5946812287764167 0.883677365849655 0.9189741721125851
4232 -0.5816072423953911 0.17062236056559452 1.4353534095395126
2408 1.9037077170245835 0.15368002404480058 0.0960444789131629
2407 -0.02374743247532063 0.3362336044279467 -0.6299123919259724
2406 -1.1983552914179618 1.4384353658862465 -0.4695624103547237
2041 -0.12742501470592968 -0.07772136042400962 -1.178371961844942
2042 0.8978079111960118 -0.7378144613663331 0.018586034588508465
2043 -1.0035692972254202 -0.4320027287549062 -0.6424171495174368
2281 -0.5046984138468447 -2.546301464907587 0.7968348391175085
2282 -0.9029946965023362 -1.0833140315163494 -0.33290816439910276
4231 1.2161845779939755 -0.40110561805975176 1.874227722244942
4230 -0.11535268787624493 1.529215702183412 -0.06314546947747696
2405 0.700696697814467 -0.6271067786806793 -1.169179362423962
2404 -0.0733093478817042 1.7679214226024795 0.810574921209333
2594 0.6246391492098591 -0.7875263054367673 -0.11682189166738072
2595 -0.13054404455139432 -1.488459315888264 0.41651776166657695
4229 -0.298013420425789 1.8356520958094766 1.4743126137743288
4228 -1.3815646342504202 -0.6628274958499472 -1.3304503613309333
2592 -1.224819301807924 0.5880082240760519 1.0917708086543942
2593 -1.4830654730406787 1.3461321053101123 -1.2727867529795718
4227 -0.687304836683971 0.44966501537754733 -0.4213167108257879
4226 -0.7693299617550888 1.8774310871927358 1.2669959110048448
2480 0.0011292704446219382 -1.1735655993289917 -0.11343183225308928
2481 0.3694665821720099 -0.4811235758450727 0.28629370762774164
2482 -0.27124788441232695 0.6099793502102888 2.721755180376012
2302 0.2436347327504892 0.20162529417920688 0.2745612946632127
2303 -0.3048856727239785 0.5556753493439596 0.18770193476808383
4501 0.854258566331927 0.5068530182225175 0.596505001569118
4224 0.043713499190379215 1.391778493829192 -1.1661833377693074
4225 -0.10314078295987195 0.06064734488455656 0.13700736272114178
2484 0.572567137826733 0.5981255146135673 -0.059651847409817715
2483 0.6151349998519018 1.7580556008125716 -1.0930123184146505
2304 -0.9888721713660329 -0.3240146302520804 -1.3974459503585512
2305 -0.4096120346872921 1.3335530159616547 -0.623608219074803
2307 -0.4753499261526902 -0.06762529721822541 -0.019925980756853548
2306 1.1368794137269473 -1.5996092219208482 0.7966285483818398
2308 -0.3146450506661345 0.6759416825564747 1.1400023406918334
2582 0.32391254995168967 0.5647034664250721 -1.3825293451147351
4754 1.5669781643467575 1.3958477942383887 0.18641896588332627
4753 0.6464895241080618 0.6188143918034404 -1.2553681242443364
4752 -0.2874236009829889 1.0858047398557702 0.5737527909629672
4222 -0.049098399483765626 -0.9219222756534383 1.2760825722480647
4223 -1.1873025279541742 -0.25613848773566433 1.6468946995868314
2581 -0.5532798341812423 -1.1865326400321803 -1.324000686343685
2580 -0.641884663558953 -2.368108203772639 1.667734216771187
2252 -0.6958164866784706 0.43399498309652373 0.33779388967254287
2251 -0.36821247563959614 -0.018258007881723715 0.4248651746003729
2083 -0.21414953609309692 -0.19302726573250542 -1.3375743444336643
4292 0.01499445384822598 -1.7067416353325164 0.07084783715474041
4293 -0.20403028752976748 -0.47564708433165237 -0.3957648837464905
4625 -0.1983769471669596 -0.2930960139121319 0.5634220961202209
4624 -0.4752274353187582 -0.09429575100542573 0.33287842933726264
4623 -0.3760183193984666 0.36182520783872724 -1.8380841581619902
4622 -1.3637435264694457 0.679464189895523 1.8039317357514655
4621 -0.12586957871539986 1.3903129775684482 1.1771510322161645
2517 0.23368863606436896 -0.6233051568084073 0.18739563799619163
2516 -0.9053373708970639 -0.27855729815152724 0.5920639391444993
2515 -0.028022743867750166 -0.019352469452804683 1.8508786849666217
2084 -0.8798999578931725 1.0753566094537128 0.5063701570028993
2085 1.672533073202973 -0.4273469092911349 0.5956113553137397
2086 0.9506794800088458 -1.035249153718645 -0.06667022361450942
4948 0.8210282859993894 -1.8266744613166956 0.5362265671876123
4947 -1.4839747630743998 0.577335227075819 -1.1029371203763676
2606 0.15575536213186825 -0.03402491213834005 -1.039414724942892
2604 -2.1751284290650506 0.6936634991187942 -0.6534815438728537
2605 -1.9949739593740536 0.28952026755017024 0.0959067477779775
2791 0.19620846939187564 0.008161195115065424 1.0101802648045255
4620 -0.17458869778432745 -0.31637636100495525 -1.4375222721291545
2087 -1.1927744696917704 2.737381819402389 0.9955599258356582
4946 -0.6748472665804687 0.9430714694842517 0.5591560325510379
2602 -0.9676266776184759 0.41754781420134046 2.3834478156614307
2603 1.5826128377364255 0.007644433252270738 0.5025734342976387
2792 -1.1399599905084994 -0.47015154376219814 0.15014601332194952
2601 -0.9980422831351814 -0.8457831986436952 0.08014782657420652
2793 0.5881959050819464 1.0186808016492739 0.16329471669919687
2794 -0.7566736645954983 1.2065564532833144 0.7517884258617978
2795 -0.12726219018143936 1.103892230481634 -0.1649842993057312
2796 -1.2158036286444327 1.141467939863005 0.8865830157010748
1893 0.9331198586896576 -0.7506676386824898 -0.15219793838035123
1892 -1.5756220548255648 -1.7496629211664103 0.33800466460089906
4263 0.0047467492932600774 0.5901358987151131 0.5799289954582236
4606 1.5556717100579989 -0.012706788729831373 -1.6883398968775891
4607 1.4996197806794778 0.006607252428079545 -1.1888149708715914
4608 0.061537939893567456 -0.4330060027773971 -0.3391055540635777
2537 -0.48993215295670434 -0.22644725260721252 0.3228182308713798
2538 1.503976213601972 0.4639887438458429 -1.209312487339333
2539 -0.9618882546822357 0.8729366580094162 -1.066857349587352
2809 0.05508280077138156 -0.19657323180524106 0.15296748302750363
2808 -0.24058615353478902 -0.58274716887205 -1.9832300158321619
2807 0.44843429285486747 -1.3238469109823436 0.4942385534352102
2798 1.9109377565836365 -1.225423695283744 -1.3208818753403928
2799 -1.0754150050669544 -0.31330733092929947 -0.2543990894968873
2797 -0.16415338559986536 -0.6633945633296292 -1.7593833732122401
1894 0.20621406563733125 -1.1761519165484515 -0.15649970368672397
4264 1.5386714414353424 -0.8668958056065603 -0.274835032175161
4265 1.3533319759247389 0.6294533842574251 0.41608940806893513
2729 0.16683690947924307 -0.41523508190784164 0.560171154638839
1851 -0.1469768319674858 -0.3868284918683361 0.9384662458270592
1852 0.11198782205170155 -0.5814973959467975 0.9856543966152375
1529 0.3016940780305 -1.0975523477135065 -0.4136790661301823
1528 -1.5009128726457837 -0.5696835850875832 0.21032891185834293
2730 -2.3166565618345265 -1.2055708669275005 0.7038341082295402
2731 -0.6305187223395112 -1.556507095301205 -0.34047674398251504
1853 -1.3019836781622058 -0.3050306905168235 -0.7438616303048594
1918 0.338898103134884 -0.3699379254681789 -0.11071210842480977
1917 0.016938679556616043 1.2271048323969211 -0.4386901073051773
1916 -0.550029899135594 0.49551289736856435 -0.2153704602313643
1987 0.7446802484276679 0.31240375284238514 -1.3505088850032083
1989 0.06585828963112382 1.229958036532374 -0.6679084537624742
1988 0.5388837038892291 0.11562650241817002 1.3950698955868597
2733 0.39935919331222935 -0.9531361198669478 -0.06466735056118803
2732 0.37877128480050914 -0.3116471894647994 -0.04046666119583578
3111 -0.3031126386066583 1.013104591364059 -0.1145347738507626
3107 0.9529970749874086 -0.9691538160582549 0.8384517376383092
1985 -1.2220477713279998 1.5693634628180009 0.2979103418151515
1986 0.9887993539648542 -1.1016472175779968 1.2804124985036864
1951 1.919542639170929 -0.1473462957377872 -1.018449484944486
1952 -0.4480963314028876 0.11100881292449447 -0.2335481179174836
2734 -1.8206584259696408 -0.2193430795971426 -0.9886242172351223
2735 -0.5009530988202952 0.036114563406051736 -0.8583729213289337
3110 0.026048484264860672 0.03332887649515075 -0.45899063130655093
3109 -0.5181698818935357 0.05403843813841777 -0.6691864761587638
3108 0.9854053986538058 -0.38847243080438076 -1.0683745172395984
3106 0.36349730295377014 0.5384153731065427 -0.30250663957829743
3105 -0.5368546547841585 -0.7320779014636194 -0.40021888350649226
1859 0.7019757373437931 -0.8987694638814105 0.7031333828735281
1984 -2.41256030498792 -0.9000796678534897 1.4460080497977972
1983 0.9644480383349703 0.45927712069077226 -0.23480287002634187
2736 -0.5989301999629806 -1.3948807203352596 -1.7841698761590816
2737 0.3622334501227894 -1.118518548476445 0.699668096584835
3104 0.5202923205845358 -0.3738751410908337 0.2371152081825379
3103 -0.3653680173849747 0.34555481972639523 0.13952258026351144
3102 0.9651043728360754 -1.1340555304558464 -0.1535937970206371
1860 -0.8027359040074938 1.062014585692801 3.0424905868120398
1861 -1.786970266721968 2.139577157617012 -1.8410578124338606
1982 -0.28360499166042336 1.0777038131211563 -0.7209501224803267
1981 0.2465668483317146 -1.2317573968245137 0.44215462144838386
1651 -0.4663906246646122 -1.1230126458726808 -0.18789888747629763
1484 0.5948319875341026 -2.0627226089307045 -0.7202438073966038
1482 0.029879589539083165 1.1890123335436955 -0.250845416252964
1483 -0.32343637730871744 0.8332498253115181 0.8073896507466447
1980 1.4510101599015246 1.5784776894202084 -1.8886783156787192
1979 1.0654610449622022 0.08367420547711606 -0.4183785741725706
1652 -1.062097449026328 0.33052438795861133 0.9438332955626134
2864 0.018299998151749597 -0.5727955063445465 -0.6906671031212626
2863 -0.6303275425242271 -1.1296055648744447 -1.6687448825062035
2862 -0.7482463189758414 0.4862579714259481 -0.2145068466773316
1942 2.6975416061946027 1.1911410989951803 -1.2117952765771531
1941 0.516897664633981 -0.8516356760028865 0.19226391202230417
1974 -2.384390312148266 0.5394288816512564 0.8297913346588387
1838 -0.03454714794872277 -0.4246772242779231 1.1660363483866667
1836 0.3530524057336903 0.05118721240982721 1.1862773902301642
1837 0.8368321456764192 0.3052397894948459 1.1313898602794943
1943 -0.9369490995842612 -0.45868211910135703 1.2497061515825612
1971 -0.7212911305500606 -0.3635532622426382 0.37201939707642845
1973 -0.08103821061352534 -1.2320035932957147 -0.7900372217250603
1972 -1.4316536373205342 -0.7840755301097359 -1.0619615743584903
4150 -0.7940419036739154 -0.12412436620179534 -0.38812498240512955
4149 -0.6584045693752325 -0.6647574504823999 0.5597302050542154
4148 0.41522097708844874 -1.3010750688540809 -0.09018044418246021
1946 -0.2018684891778157 -0.9130169794238966 0.07666018396069893
1947 1.4073898601660197 -0.12162598087769484 0.4494572595813472
2388 1.915929341279278 -0.6238614724376618 -2.106191365430525
2387 -0.7496072104840827 -0.16399878091821474 -1.2982422317676934
1968 0.6324821944653264 -0.46866272168275636 -0.0933724575798223
1967 1.2196695022115194 0.7682794480193107 -1.0483614574896334
2367 1.1673347391315185 1.6921208207042595 -0.9693884247155866
2389 -1.5799812977317147 -0.44396539035628607 -1.1634077940590566
2390 -1.1679355900057173 1.1176123388736305 1.1430892695310793
54 -2.454037120298605 0.7809879550368846 1.0685345784808393
52 0.24539339153338652 0.7625652850241171 0.17532666871427233
53 1.1924025447751994 0.11667312544188102 -0.5425293616312016
1503 1.7542441593659246 -0.36438351475210534 1.8948453427813488
1502 -1.966443580962049 0.29641098809256805 1.6232687650180444
2391 -0.9332600027079245 0.5753328279137654 -0.2780163039410878
2392 -1.2462325349509769 -0.08244495578896863 0.32765488898745115
2393 0.4256258772888127 0.004434629926096528 1.9276837179372224
1501 -0.3163273147795632 0.3656252152355166 1.1170737395056685
1042 0.9689008625423774 -1.9230245957477128 -0.0977129215234285
1043 1.1800153707499037 -0.8200248078303954 0.13909717245680422
2394 0.8141384564397792 0.688554964455328 -0.5766811658625628
2395 -1.3346483034312573 0.7220095008336742 0.8837667524123726
4242 -0.8486483218789005 0.8854018465764579 -0.8171943075356928
4243 -0.6513676948950313 -1.1528410982032882 0.03692082461572488
152 0.9811804733001108 0.13739288059926072 0.3582278753035095
153 1.4263622250668537 -1.0329583010447703 0.12496065437848417
2396 1.4052299635271412 1.365564040767377 -2.431268871085363
2397 -0.06088386778869105 0.7394524947899873 -1.1180766877298975
2284 -0.23019492457708846 -0.67588915801323 0.024465260390036714
2283 1.4216444373780284 -0.5353755400838311 0.8711570882234114
4244 -1.8196101980577448 0.2429278178664938 -0.8347823091942108
4245 1.4420672130672154 -0.250236310384492 -0.01216403876676364
154 -0.3164514664505905 -0.9322001932243822 -0.19901006017776196
2399 0.582337200041089 1.1691961648744649 0.8618552882408859
2398 1.8578185689585807 -0.6955409844328571 -0.2012120398311924
2403 -0.11878681610417198 -0.22816138985199896 1.417177138768796
2402 -1.9846095034635631 0.8323509861580104 -2.5711829245587836
2044 -0.32820764719998385 -1.139195868030892 -1.2120358883514635
2045 -0.02169549949257732 1.2362530849030278 0.8529230224939415
2400 -0.19370093670436475 1.2902994974875894 2.5764167726018106
2401 -2.291408134361257 0.7389706757492722 2.318268769402983
2591 0.6214798634362386 -0.16824034647341327 1.324606812400053
2590 -0.11771101726435526 -1.2568006154920675 -1.6388444182715292
2301 -2.141563309247478 0.04320762320737656 0.932978255686114
2586 -0.41170606456126935 1.2318051678544988 0.561978308929369
2587 -1.5394899113631693 -0.7125439405359484 -0.009869871215344717
2585 -0.28995813292330674 1.0905394102234551 1.002869941941111
2588 -0.15457233400613174 -1.3502229910654755 2.000347206978541
2589 -0.5833287455561071 -0.9921493033488035 -1.1126566601913062
649 -0.2418415291901127 0.5396926268007016 0.9241353595956843
650 1.4673432720168278 -1.7497155006580267 -0.5483773820456631
4503 -0.9567260096636109 -0.9372198280481965 1.7539463498398573
4502 -0.9946253882949256 0.5866362575716848 1.3698829442317735
2583 2.8545878477123674 -0.9817609815838396 1.2812368870672548
2584 0.4102191223144639 0.8434128943920449 -1.7970875726198543
969 1.7234121225170718 -0.055296068908694034 0.5465187639647405
970 0.6576592865275721 0.28819648853926944 0.8359943215756982
4504 2.10733475885744 -0.347646412568438 -0.873951998872232
2485 0.4910582832393683 1.2439260028214483 1.0964146767471548
2486 0.8867225443302234 -1.6730099207896403 -0.3916456363592962
4751 0.4322268876854461 -0.06336434227159538 2.1504790571066112
971 -0.1618535520524671 0.9367872381994693 -0.32729788282731936
972 -1.1607033221530458 -1.3625054325438746 -0.008116894840221045
2487 1.2947451306158468 -0.7236125231265912 0.26752963438530225
2488 -0.26861776182256564 0.599615294022711 -0.058531635103556884
2080 1.4575256149612072 0.5471461457280204 1.2677194088939776
2081 0.5610409500343352 1.107554934767672 -0.5499925582346897
2786 -0.2122825880391465 -0.007219278312388096 -0.14144222325988623
973 -1.0321450862653105 -0.20410577895222654 1.2991153960027433
974 -0.004820628585908898 1.0124893169771312 0.5812525337333546
2082 -2.157555019896237 1.3017315496010784 0.48237154679737937
2787 -0.22813722536910697 -0.10404075918119063 0.5728896752782324
2788 2.0208912717068577 0.43927080342559105 -2.096826478222313
4290 0.9487356843967583 0.40871097347398544 1.0173645462093552
4291 0.06958802452128421 0.8811994698300578 0.17454126103504508
975 -0.7577249093282952 0.2618169477874071 0.10204635881852853
976 -1.1825004279846083 0.3088539592556946 0.25920539359354894
977 1.910617522375865 -0.05871088348575797 -1.0163932893459
978 0.06829395256110615 -0.3304110924464912 1.2021775331383144
980 0.14831428888206127 -0.3639818486519117 2.3800249272008003
979 -0.6418761942349656 -0.06799962485269603 0.22363567324318984
981 0.32872560647210514 0.923825640315121 0.8258770452291708
2789 0.304872344597653 -0.5574493220967032 0.6093594572654557
2790 0.898055033043651 -0.634901528095358 -0.45059066789127367
4619 -1.0993285843934502 0.08817407893121085 -0.08853110329157271
4617 1.4483829528947982 -0.9028897397762243 0.841134673192973
4618 -1.4749136333774593 0.5584299898154323 -0.4694763696212165
2514 -0.572835492568541 0.9807694706086445 -1.0997398158894085
2513 0.7948153450667503 1.5746170875526098 0.8455416676546971
2512 0.16257244017711972 1.9214070520615225 1.1963040772689641
2768 -0.7490650763043969 0.09790289095428018 -0.19520358881555513
4945 -1.404992835291677 -0.797837725350649 -0.6382530395663016
4616 1.032094763386649 -0.9517607034891827 -1.6394915483294419
4615 -0.719767416581936 -0.9955800318566748 -0.7718021831280275
2511 -2.37356405656507 -0.7618057006784651 -0.48063642347199903
2767 -1.0880104038085274 -0.7814627625807979 -0.81231046132195
4944 2.4690913538252057 -0.3029601244891646 -0.5267927300624455
4943 -0.983385355141582 0.3459675753651939 -0.9272197502796395
4942 0.554598289492878 0.3957954825521328 -0.2136630060558448
2804 -0.7912168147360145 0.5044809155459693 -0.2486767601342813
2803 0.8340528344704461 0.9189822978198787 0.005206825958334896
4613 -0.09893293483089144 0.5666052386849902 -0.27755964070361705
4614 0.659507457132946 -1.1499013310678123 -0.16005308774573285
2806 -0.5668438708922086 1.2510446589988373 0.4101134290418804
2805 1.0008004505777475 -0.9273892238931265 -0.9594422954818764
4609 -0.17423860237664784 -0.7939130667541587 -0.7517494418545594
4610 0.4438476548140896 -0.8584888769463759 -0.03859665474725077
4611 -1.4542125189863637 -0.5875929335674523 -0.6597051606511245
4612 1.50877612611657 -0.8360431361428117 0.14940372965934817
2540 -0.9085222488610928 -0.3252606370749982 -0.38470985016240966
2541 0.4738843078907808 0.5267678316665098 0.2703905760250509
1895 0.03342319367119517 0.7108738926766887 1.0493066039045718
4267 -0.5769652119151332 -0.19806359567408285 0.08055317021366373
4266 0.19611491711342188 -0.991882405597051 2.265731353020501
2542 0.6960272088140715 -0.9488967159427534 0.8225036206473458
2759 -0.8387033755541183 0.8748198616431966 -0.8487567448590062
2758 -0.2037002074762154 0.6146631433911087 0.6909366871615354
2757 0.4561366355536939 0.8750509244314735 0.8683922475301267
1896 -0.856786279989498 0.9790778624521606 1.679283195681012
1904 1.7747171412376586 -0.2138229906872524 -1.7916271807067359
1903 -2.019189560645405 0.12363205493926296 0.41646624614857175
1901 0.8862774227083514 -0.20969437826208376 -0.3787926743933232
1902 -1.0062300184844495 -1.6797890808503784 0.18221716731383947
1527 -0.8142235853193286 -0.13977328689396806 1.1936452723647373
2756 -1.66602515337527 -0.21775582674058624 -1.7306713923764758
2755 -0.6205183398366816 -1.1036820489869354 -0.8452195898353094
2754 -0.30492918883277265 -0.7708706449375899 -0.15072223364533652
2753 -0.2532200769990396 0.6261731704868304 -0.2065515091420576
1854 -1.0962657484327767 -0.608450044049964 -1.310207057129678
1855 0.9335760974350903 -1.8163989938152298 0.4904185351542209
1915 -0.9959003500466017 -0.3701380383046219 2.6211869460517385
1914 -0.4547440705580917 -0.6669813509851057 -0.6921580782269061
1913 -0.5003698187100768 0.8506700529534801 -0.7822788443385387
1526 -1.1318806201491405 0.8068054413712548 -1.88480765311181
2752 0.020867291791230952 -1.1142796944814384 1.108870532753519
2751 0.6219561553271248 0.955474087913539 -0.4647847546161068
1856 -0.26783184484034545 -1.571126582910729 -0.6437970463203075
1857 -0.4161167013862661 -0.7710488631366212 -0.2395626840315077
1953 -1.5551731617529618 0.8595899824902193 -0.6489154584470841
1858 -0.7392368395402392 0.38153423075363724 -0.9969856194846402
1954 0.42375300440345975 0.2687512531023787 -1.3313181048958875
1955 -0.902335170984264 -0.6883987411319157 1.911732869083194
1956 -0.40899346624617405 0.43833333696728716 -0.31522222599147187
2861 0.40199091312975 -1.3784868637754637 -1.0898686526887564
2860 -0.1705948437714533 -0.19283608528425267 -1.2747674582986426
2859 0.23019673812148567 0.3913124705074242 0.7586926004691655
1491 0.4860624290837045 0.15835896100299815 0.6044412256452499
1490 0.9419179057213137 -1.0451179453659398 0.967727089052755
1489 1.643757634913445 -1.0143738576379122 0.6215084049345411
1487 0.6268332917542061 -2.2664404906609406 1.8608687048712087
1488 -0.15999893351623184 -0.1919979677140654 -1.8922724605951968
1485 0.852533785902569 -0.36810134235472847 -0.78721677582732
1486 -0.2380032693858929 -2.0651856579813 1.7570028783632685
3101 1.498604153240632 -1.3183498419850097 -0.4164026268769894
1495 0.2829565739475136 -1.547791594935524 -1.397636788756364
1493 0.5098718597263102 -1.436882067205541 0.3872031157923139
1494 -0.07135909929030307 -0.9570292388400967 -0.9279102284124348
1492 1.6195741709855012 -1.84338603318819 -0.1389095156975863
1498 -0.28186710112781366 -0.347376873647091 0.6848883536728183
1497 -2.3206222505616667 0.056908458573635204 0.14722253368651247
1496 -0.1613025844364594 0.26397556502427766 -0.8042248390650782
1500 0.4113178546087519 0.010897901060346882 0.8307497636339255
1499 0.6941776432439001 0.06624801518213103 0.4901945781252869
1944 0.5656370833835588 1.7429610223347551 0.8501250586765143
1945 0.96679725123379 -0.345992656828566 -0.4828885869597412
1966 -0.5163561359789383 -0.5930987994068068 -0.3020454366202258
1965 -0.37020577427492574 -0.09371658870840005 1.5352100340131944
2368 0.570092571407438 0.048494910876359376 0.9535907883247023
1504 -0.05358351978095048 0.7443748678878805 -1.2376939540458265
1505 0.7653528413478534 -1.4696588550679877 0.6855521502443257
1948 0.44239352283088296 -0.5027142113557699 1.4727987396820632
1949 1.0094084800893337 -0.08819839690628867 0.9370273118704563
51 -0.052486396908309085 0.13254700768867075 0.017747633449166383
1039 -0.20859679948967066 0.182013533135466 -0.26882636029697854
1041 0.32111822418903646 -0.025895752007526134 0.8850038638216873
1040 -0.8487343574424868 0.7669463691400044 0.9436275580926499
1950 0.5571550114701538 -1.3125224309780286 0.6814770233889962
185 -0.06604549104890761 -1.0266564934208702 0.8517734098345559
183 -0.9228303558940716 -0.8540114925088457 -0.3097592317994957
184 0.3219448563388926 0.08181055260155953 -0.31082001248540925
1062 -1.6513622690935112 0.16843174169805195 -1.6952729050626338
1063 1.4595889842183265 1.0551041546373168 0.16633293982845038
1060 0.6653441952235044 -0.96965605956357 -1.3997038803383877
1061 0.5687382765621863 -1.762005845635282 0.15653104571529677
182 0.7841297593721189 0.7908063766375216 0.20355261282644432
1065 1.920508630680601 -0.9933692883869903 0.3677110179262305
1064 -0.30520011454114726 0.7733814422298941 -0.4226258380631717
2285 0.25730957985561853 -0.5705309632438775 0.2581989516490819
2286 0.6065868617275697 0.048291963758530065 -0.2891900374273707
4249 -1.9667804973768426 -0.18298095286119162 0.014041836552720621
4248 0.2686185227359424 -1.9873701653951412 0.17934681573787206
4247 -0.9414843715409054 0.20350649702214185 0.06685768616919821
4246 0.8955059324524798 0.5416095192271567 -0.17777066279999326
156 -0.47164320445727537 -1.403042343754307 -0.1403790934270548
155 0.9529256409780477 0.028349923094054777 1.8292282994572961
1068 0.008457592933153096 1.3162647336014757 -0.579003841696969
1066 -1.4694595809749071 0.8353442088286974 -0.8366312635129824
1067 0.015845893036338737 -1.6737352865085384 -0.6157278655937283
2046 0.5713106009073378 -2.7434509681675725 -1.2301442169810723
157 -0.04784167611029336 0.7929204893368779 0.4041524464419086
158 -0.74030816678906 0.10407004804283519 0.668772996675853
1069 0.9800297635888047 -0.4228081073252736 -1.2833313872595489
2047 -0.5209494001546261 -1.653688810828596 -1.5796745819452584
2048 0.06587868733805306 1.0417471697388376 -0.7645930500802685
647 -0.8272573303179862 -0.0517475446029968 0.48121135997933207
2065 0.970084570952781 -0.2034536876247884 1.0695600443876492
1070 1.6603300082364598 0.35896362070260424 0.45945645009133707
648 -0.546841535320759 0.49444808942426505 -0.2864793556595218
966 -1.1313103839385277 1.0353696404634594 -1.3216895435961664
967 1.685908471292737 -0.7557327895307013 -0.6134094377148231
2066 1.623360303751149 1.6697387027084867 -1.0503147485110476
2067 0.8353101203566848 0.5091458037368923 -1.476905057243392
2068 1.1838026863973405 -0.9432845644383123 -0.09439422958583338
2069 -1.4003547222119392 0.25973059049637287 -0.7994298072747338
968 -0.5900702233751502 -2.4472804957699568 1.6013769530372377
4506 1.8989429444033052 -0.1282248111713567 -0.3585714274941027
4505 1.298204605681647 1.5194212810401895 0.29975740759695957
2071 -0.061985773434778346 2.877231906992328 1.5596608857725063
2070 -2.040052751181186 -0.6306671826986321 -0.03245305723619413
2072 1.038435850271235 0.26250923303073154 -0.6630860092719139
2073 0.9479201016759877 1.108553216383247 -0.9645050539279794
2074 -0.34978569668672505 1.2053780640539822 0.26797232724138353
2075 0.24723279643675838 -0.9242710455927873 -0.5929748618540942
2077 -0.5159794240518936 -1.4394851026499287 -0.43445132152544386
2076 -1.7905755117220115 1.2187846990862405 -0.11566240225344326
2078 -0.897139809685296 -0.45321054062253197 -1.1949342239765137
4507 1.352372643482274 -0.5040083001452923 -0.4484951184306717
2079 -1.1287220110260996 0.6702616664816095 -0.9959374397394688
2783 -0.8627062665269165 -0.8949335850700876 0.4691859432416188
2784 -0.1418305076539243 0.6404393538647495 -0.1983300289803214
2785 -1.5529007033558142 -0.7824653548063263 1.2139254312311
982 -0.4292961833637575 -0.9712227557036068 0.02673612318732918
983 -1.5155843591085982 -0.35088815850775756 0.10021020943653394
2489 0.9241314754570068 0.40543601703441756 -1.172522177282065
2490 -0.8936954179455471 1.8648303250416753 1.9798625364527562
2772 -0.7875044598741291 0.14839761357816844 -0.6193051980234533
4289 0.0854895177682394 -0.5388992093330087 -0.09058407498002838
4288 0.6637196378054816 1.377924345229139 -0.32430684131810295
2492 -1.076879979715883 -0.593246409716681 1.7709868168458367
2491 -0.3486750717986068 -2.1633102064406273 -1.8280774848090031
701 -0.9443190621567203 -0.8952453419642242 0.28608546309078775
2771 -0.24321943016386308 -0.01365486960483403 1.5276555274954542
2770 0.8111643276558613 -0.3461610564401322 0.3384208352111663
751 -0.18235681839941517 -0.6704836378697845 1.0140744541321454
752 -1.6582645449403695 0.6584156426078793 -0.5100416091158393
2769 -0.3192049817894025 -0.001796720208312487 0.26523391496219634
2801 -1.0407720442778767 -0.12572963214034855 -0.12748590641916957
2510 0.4838623186560406 0.4244524412298564 0.06412722195617641
2766 0.5510827084450293 1.6925684427595666 -0.7729604562413808
2802 0.19575599854336337 -0.4219257620840204 0.5120195945839577
3590 1.5917729939498324 1.3624052711434078 0.30234096706935015
3591 -0.38735479872983375 -0.3478935877721584 -0.24369150144697363
3592 1.8118463408412877 0.6837252377925187 0.32222764489478795
3593 0.06108031233478557 1.15486839777083 0.5127784352945064
3594 -2.5403797524667118 3.244397354327429 -0.9291064869059802
3596 1.287803500296155 -1.475651271408488 -0.2666537104763728
3595 -0.2208645747607043 -0.4110702532514998 -0.31322092467542473
3597 -1.0115428119723984 0.6965030474581659 -0.18639374110138363
3598 -0.30168925227720045 0.9286255621239087 -0.18492648290970026
3599 -0.778305677904727 -0.6550580327164743 1.002832203947413
3600 0.4908564657218601 0.20962615830543718 0.3886425747286757
2508 -0.14178693269701614 -0.1675244456968445 0.3717390271362804
2509 0.478443081197337 -0.5256207455809554 0.6763948748228544
2765 1.8950344724115744 -1.5530318557605682 -0.04016698693581974
2764 -0.1263688850097787 0.9959127390244216 -0.23014477293571856
4941 -0.892377282869657 -0.5952671095177567 -1.1617542074125815
4940 -0.2628506010301809 1.4287549912823365 -0.16269407519906076
2507 -0.011991550215135288 -0.2739464136001284 -0.13677912150912552
2506 1.214600006678288 1.3378060983468396 2.704454674280296
2763 0.9587587124571127 -0.41599398252116054 1.605271475455136
2762 0.4071332944740809 0.030077455767916678 -1.0142561745745091
2761 -0.47697488199679555 -0.19697948938438234 0.12656008769174676
4939 0.43334417183264207 -0.7331967380333444 2.1402260304290186
4938 0.4703466779994085 1.1271398489170472 -0.43040253636598147
4268 -0.5234614116494878 0.5861353552064152 -1.400740037462336
2505 -1.4960343736574868 0.09034186528078653 -1.1982466225860389
2504 0.6388286528527274 1.1611366902739704 -0.25771531286413746
2543 -0.07584866493552017 0.5021852027970105 0.3257355697277321
2544 -0.18968097407822773 1.1997930616165884 -0.11312714905682625
2545 0.6749387140555191 0.2914406692818444 1.3223268766014522
2760 0.061602168885406 -1.4375269283986247 0.03331114034161392
1897 0.12220646817759248 0.18210555918548943 -0.909794386934774
1898 1.0764958227823274 1.5234503365430148 -0.769354028838934
4270 2.5722142704575144 -0.2730576311570496 1.643180995619443
4269 0.9609309592269708 0.7323623451022817 -0.9758429814804181
1905 0.38033508304906766 -2.4360930639501412 -0.19350167165200438
2503 -1.4412893829771642 0.40115557440588007 0.9056961522362539
2502 0.15846803341196383 -0.291043747307427 0.14867488214399463
1912 -0.14985441022410648 -0.7720678473131501 -0.21467933012840582
1911 1.0853804968630845 -1.1791702897040106 -1.8048715421086479
1910 0.5572800918548646 2.0652866494362248 0.08285453349720781
1909 0.3464419375757813 -0.9329909018497123 1.0084277187438937
1907 -0.08812399318872165 -0.1324699747179254 -0.48156278032195093
1908 -1.269621597848351 0.24816228954408875 -1.2905104714265418
1906 -1.8816546959550504 0.22033442661439478 -0.0482850262111679
1525 1.1819615941942025 -0.36164125277675313 -1.005507971923939
1524 0.20497639533123074 1.7256833685180022 -0.6304830373459607
1523 1.328197258296226 -0.16371481863786685 -0.3794849476829377
2965 -0.4030577458767388 0.20448184545607556 -0.5378756341724884
2966 1.2783645925143277 1.1670573361900176 -0.32486020686148603
2967 0.12287794133618082 -0.9206531503689647 1.4870592713341058
2968 -0.3929691416041695 0.39903466574785573 -0.20364898832011954
2969 0.3020085361693124 -0.2563308864521979 -1.2197961534799426
2970 -0.1330500805179716 -0.11422253934771212 -0.11534016642046635
1957 0.3670635932779673 0.10319684904866314 1.5963635560051666
2858 1.5781967839301367 0.4179825631392266 0.603245727095704
2857 -1.17579379970023 -0.8713400868023602 0.16522232183585506
2856 1.0439434121864926 0.09507488710418066 0.014914546456242989
2971 -0.1646725349378132 1.5574912423267182 -0.846303172181381
3400 0.4040769624320026 -0.48879882252043905 -2.220558936764977
3398 1.9567438585383603 0.003296636597802133 0.6271309903877883
3399 1.3812927296134059 -0.12209816702001558 -0.045262191902735116
3396 -0.7030316871539994 0.16209589499169683 -0.6939078782575502
3397 0.8678754252549133 -1.6713060150183954 -0.01927243123154973
1959 -1.548740753966988 0.5395055186067497 0.7384224796509383
1958 1.1984629729156755 -0.6233813297828947 0.7762928313788449
2972 1.0370533064454603 -0.8286318781297867 -0.679372243221263
1960 1.5187977411551417 -1.5780401132469508 -1.3982838926935441
1961 -0.63499207860812 0.20729487011733316 0.34753460344740533
2976 -0.4663444621427051 0.3026118668890292 0.8304681510491582
2975 -0.3655536827862679 -1.4731208732703516 0.36832256273674513
2974 1.8027442573258505 0.4405776217153874 -1.5028011885677552
2973 -0.17911933534984334 1.0482408575603865 -0.3763811632171551
1963 -0.11636627311747005 -0.8776018967725219 -0.8389372039357528
1962 0.15788777699636952 -0.6176370607532874 3.523454906328919
1508 -1.357616043292873 -0.5806925447673054 -0.7565181495562638
3449 -0.8659463247980157 -2.3335210207089156 -0.3488625812697672
3450 0.4278949579185356 1.282359205388251 1.3209073502614561
2384 0.48267729386641167 0.04550410740958997 2.069143785115641
2386 -0.4268639795503577 0.05763390554342859 1.0475616653110822
2385 0.10495514979148798 0.40571907761497544 -4.145074973342042
1964 0.27896745945833257 -0.48684796118346985 -0.3576668381238375
2370 -0.8396430113447277 -1.1923249590801699 0.5767234361948246
2369 0.4888715873689002 1.6209649198173717 -0.05462128631511863
1507 -0.01440018514792965 0.7985201375573481 0.2464890265794367
1506 -0.38202810348788635 0.3231947653183288 2.3921038751304184

Bonds

1 1 952 953
2 1 951 952
3 1 1037 1038
4 1 1038 1039
5 1 186 187
6 1 187 188
7 1 188 189
8 1 1059 1060
9 1 1057 1058
10 1 1058 1059
11 1 1056 1057
12 1 957 958
13 1 958 959
14 1 959 960
15 1 181 182
16 1 960 961
17 1 961 962
18 1 180 181
19 1 2288 2289
20 1 2289 2290
21 1 2287 2288
22 1 962 963
23 1 963 964
24 1 3801 3802
25 1 3802 3803
26 1 2061 2062
27 1 2062 2063
28 1 2063 2064
29 1 645 646
30 1 646 647
31 1 964 965
32 1 965 966
33 1 160 161
34 1 159 160
35 1 2064 2065
36 1 1072 1073
37 1 1071 1072
38 1 2049 2050
39 1 1073 1074
40 1 1074 1075
41 1 1075 1076
42 1 1076 1077
43 1 4498 4499
44 1 4497 4498
45 1 4499 4500
46 1 4510 4511
47 1 4508 4509
48 1 4509 4510
49 1 988 989
50 1 2775 2776
51 1 2776 2777
52 1 2777 2778
53 1 2778 2779
54 1 2779 2780
55 1 2781 2782
56 1 2780 2781
57 1 2782 2783
58 1 4511 4512
59 1 985 986
60 1 984 985
61 1 987 988
62 1 986 987
63 1 2773 2774
64 1 2774 2775
65 1 678 679
66 1 2493 2494
67 1 702 703
68 1 703 704
69 1 686 687
70 1 684 685
71 1 685 686
72 1 683 684
73 1 682 683
74 1 681 682
75 1 680 681
76 1 679 680
77 1 4287 4288
78 1 4286 4287
79 1 753 754
80 1 754 755
81 1 755 756
82 1 2495 2496
83 1 2494 2495
84 1 4285 4286
85 1 2496 2497
86 1 2497 2498
87 1 3588 3589
88 1 3589 3590
89 1 2498 2499
90 1 2499 2500
91 1 4937 4938
92 1 4274 4275
93 1 4275 4276
94 1 4273 4274
95 1 4272 4273
96 1 4002 4003
97 1 4001 4002
98 1 4935 4936
99 1 4936 4937
100 1 1899 1900
101 1 4271 4272
102 1 2546 2547
103 1 2547 2548
104 1 2548 2549
105 1 2501 2502
106 1 2963 2964
107 1 2962 2963
108 1 1521 1522
109 1 1520 1521
110 1 1522 1523
111 1 2964 2965
112 1 3483 3484
113 1 3484 3485
114 1 1519 1520
115 1 2853 2854
116 1 2852 2853
117 1 3486 3487
118 1 3485 3486
119 1 2855 2856
120 1 2854 2855
121 1 3487 3488
122 1 3488 3489
123 1 3395 3396
124 1 3394 3395
125 1 3393 3394
126 1 3392 3393
127 1 3391 3392
128 1 3489 3490
129 1 1511 1512
130 1 1512 1513
131 1 2381 2382
132 1 2380 2381
133 1 1510 1511
134 1 1509 1510
135 1 2981 2982
136 1 2980 2981
137 1 2979 2980
138 1 2977 2978
139 1 2978 2979
140 1 3447 3448
141 1 3448 3449
142 1 2382 2383
143 1 2383 2384
144 1 2374 2375
145 1 2373 2374
146 1 2372 2373
147 1 2371 2372
148 1 3498 3499
149 1 3497 3498
150 1 3499 3500
151 1 1035 1036
152 1 953 954
153 1 1036 1037
154 1 1202 1203
155 1 1201 1202
156 1 954 955
157 1 955 956
158 1 189 190
159 1 190 191
160 1 956 957
161 1 1055 1056
162 1 1054 1055
163 1 1053 1054
164 1 4488 4489
165 1 2058 2059
166 1 4489 4490
167 1 3804 3805
168 1 2060 2061
169 1 2059 2060
170 1 179 180
171 1 177 178
172 1 178 179
173 1 2290 2291
174 1 4491 4492
175 1 4492 4493
176 1 3803 3804
177 1 949 950
178 1 3961 3962
179 1 3960 3961
180 1 3959 3960
181 1 2291 2292
182 1 2292 2293
183 1 642 643
184 1 643 644
185 1 644 645
186 1 4494 4495
187 1 4493 4494
188 1 161 162
189 1 162 163
190 1 3965 3966
191 1 3963 3964
192 1 3964 3965
193 1 3962 3963
194 1 4496 4497
195 1 4495 4496
196 1 1077 1078
197 1 1078 1079
198 1 1079 1080
199 1 989 990
200 1 990 991
201 1 991 992
202 1 992 993
203 1 993 994
204 1 4514 4515
205 1 4513 4514
206 1 4512 4513
207 1 677 678
208 1 676 677
209 1 704 705
210 1 705 706
211 1 687 688
212 1 756 757
213 1 757 758
214 1 758 759
215 1 690 691
216 1 691 692
217 1 688 689
218 1 689 690
219 1 4284 4285
220 1 4282 4283
221 1 3587 3588
222 1 3585 3586
223 1 3586 3587
224 1 759 760
225 1 740 741
226 1 741 742
227 1 4999 5000
228 1 4998 4999
229 1 4283 4284
230 1 4281 4282
231 1 4280 4281
232 1 742 743
233 1 744 745
234 1 743 744
235 1 4279 4280
236 1 4278 4279
237 1 4277 4278
238 1 4276 4277
239 1 745 746
240 1 746 747
241 1 4003 4004
242 1 4004 4005
243 1 747 748
244 1 748 749
245 1 4007 4008
246 1 4005 4006
247 1 4006 4007
248 1 749 750
249 1 2549 2550
250 1 4934 4935
251 1 4933 4934
252 1 4932 4933
253 1 2960 2961
254 1 3604 3605
255 1 4930 4931
256 1 4931 4932
257 1 2961 2962
258 1 3606 3607
259 1 3605 3606
260 1 3482 3483
261 1 3481 3482
262 1 3480 3481
263 1 3607 3608
264 1 3608 3609
265 1 1518 1519
266 1 2851 2852
267 1 3609 3610
268 1 3610 3611
269 1 1517 1518
270 1 1516 1517
271 1 3249 3250
272 1 3390 3391
273 1 3389 3390
274 1 1515 1516
275 1 1514 1515
276 1 3490 3491
277 1 3388 3389
278 1 3387 3388
279 1 3386 3387
280 1 1513 1514
281 1 3445 3446
282 1 3446 3447
283 1 3491 3492
284 1 3492 3493
285 1 3493 3494
286 1 2379 2380
287 1 2378 2379
288 1 2982 2983
289 1 3494 3495
290 1 3495 3496
291 1 3496 3497
292 1 2377 2378
293 1 2376 2377
294 1 2375 2376
295 1 2984 2985
296 1 2985 2986
297 1 2983 2984
298 1 1033 1034
299 1 1034 1035
300 1 1203 1204
301 1 1204 1205
302 1 191 192
303 1 192 193
304 1 4486 4487
305 1 4485 4486
306 1 4484 4485
307 1 4483 4484
308 1 1052 1053
309 1 4487 4488
310 1 944 945
311 1 2057 2058
312 1 2056 2057
313 1 2055 2056
314 1 201 202
315 1 1051 1052
316 1 4490 4491
317 1 3806 3807
318 1 3805 3806
319 1 945 946
320 1 946 947
321 1 176 177
322 1 175 176
323 1 640 641
324 1 641 642
325 1 947 948
326 1 948 949
327 1 174 175
328 1 3958 3959
329 1 3957 3958
330 1 3956 3957
331 1 3955 3956
332 1 3954 3955
333 1 163 164
334 1 164 165
335 1 3953 3954
336 1 3952 3953
337 1 3951 3952
338 1 2293 2294
339 1 2294 2295
340 1 149 150
341 1 148 149
342 1 147 148
343 1 3969 3970
344 1 3968 3969
345 1 3966 3967
346 1 3967 3968
347 1 3974 3975
348 1 3972 3973
349 1 3973 3974
350 1 3970 3971
351 1 3971 3972
352 1 1080 1081
353 1 1081 1082
354 1 1082 1083
355 1 671 672
356 1 672 673
357 1 994 995
358 1 995 996
359 1 699 700
360 1 674 675
361 1 673 674
362 1 996 997
363 1 997 998
364 1 698 699
365 1 697 698
366 1 4961 4962
367 1 4962 4963
368 1 4963 4964
369 1 4964 4965
370 1 4965 4966
371 1 675 676
372 1 4515 4516
373 1 4516 4517
374 1 4517 4518
375 1 696 697
376 1 695 696
377 1 694 695
378 1 693 694
379 1 737 738
380 1 738 739
381 1 706 707
382 1 707 708
383 1 692 693
384 1 3583 3584
385 1 3584 3585
386 1 3987 3988
387 1 3986 3987
388 1 760 761
389 1 761 762
390 1 762 763
391 1 739 740
392 1 3988 3989
393 1 3989 3990
394 1 3990 3991
395 1 763 764
396 1 4997 4998
397 1 4996 4997
398 1 4995 4996
399 1 4994 4995
400 1 4993 4994
401 1 4992 4993
402 1 3215 3216
403 1 3214 3215
404 1 3216 3217
405 1 3217 3218
406 1 3218 3219
407 1 3991 3992
408 1 3992 3993
409 1 3993 3994
410 1 3525 3526
411 1 3526 3527
412 1 3211 3212
413 1 3213 3214
414 1 3212 3213
415 1 3994 3995
416 1 3995 3996
417 1 3996 3997
418 1 3997 3998
419 1 3998 3999
420 1 3999 4000
421 1 3523 3524
422 1 3524 3525
423 1 3206 3207
424 1 3205 3206
425 1 3208 3209
426 1 3207 3208
427 1 3209 3210
428 1 3210 3211
429 1 3601 3602
430 1 4008 4009
431 1 4009 4010
432 1 3522 3523
433 1 3521 3522
434 1 3204 3205
435 1 2958 2959
436 1 2957 2958
437 1 2959 2960
438 1 3603 3604
439 1 3602 3603
440 1 4010 4011
441 1 3479 3480
442 1 3478 3479
443 1 3477 3478
444 1 3520 3521
445 1 3519 3520
446 1 4929 4930
447 1 3518 3519
448 1 3517 3518
449 1 4926 4927
450 1 4925 4926
451 1 4928 4929
452 1 4927 4928
453 1 3516 3517
454 1 3515 3516
455 1 4921 4922
456 1 4922 4923
457 1 4923 4924
458 1 4924 4925
459 1 3246 3247
460 1 3514 3515
461 1 3513 3514
462 1 3247 3248
463 1 3248 3249
464 1 3611 3612
465 1 3612 3613
466 1 3442 3443
467 1 3443 3444
468 1 3401 3402
469 1 3402 3403
470 1 3385 3386
471 1 3384 3385
472 1 3444 3445
473 1 3383 3384
474 1 3382 3383
475 1 3381 3382
476 1 2987 2988
477 1 2986 2987
478 1 3451 3452
479 1 3452 3453
480 1 3453 3454
481 1 3503 3504
482 1 3504 3505
483 1 3378 3379
484 1 1030 1031
485 1 1032 1033
486 1 1031 1032
487 1 2989 2990
488 1 2990 2991
489 1 2988 2989
490 1 1205 1206
491 1 1206 1207
492 1 4481 4482
493 1 4482 4483
494 1 4480 4481
495 1 4479 4480
496 1 937 938
497 1 3502 3503
498 1 3501 3502
499 1 4478 4479
500 1 4477 4478
501 1 940 941
502 1 939 940
503 1 938 939
504 1 194 195
505 1 193 194
506 1 942 943
507 1 941 942
508 1 2054 2055
509 1 2053 2054
510 1 2052 2053
511 1 943 944
512 1 202 203
513 1 203 204
514 1 204 205
515 1 3808 3809
516 1 3807 3808
517 1 638 639
518 1 639 640
519 1 171 172
520 1 173 174
521 1 172 173
522 1 666 667
523 1 665 666
524 1 664 665
525 1 145 146
526 1 144 145
527 1 165 166
528 1 166 167
529 1 167 168
530 1 2295 2296
531 1 2296 2297
532 1 2297 2298
533 1 667 668
534 1 668 669
535 1 146 147
536 1 669 670
537 1 670 671
538 1 3975 3976
539 1 1003 1004
540 1 1002 1003
541 1 1083 1084
542 1 1084 1085
543 1 1085 1086
544 1 3979 3980
545 1 3976 3977
546 1 3977 3978
547 1 3978 3979
548 1 1001 1002
549 1 3981 3982
550 1 3980 3981
551 1 998 999
552 1 4957 4958
553 1 4960 4961
554 1 4958 4959
555 1 4959 4960
556 1 4966 4967
557 1 4967 4968
558 1 4968 4969
559 1 4969 4970
560 1 4970 4971
561 1 4971 4972
562 1 4972 4973
563 1 4518 4519
564 1 3983 3984
565 1 3982 3983
566 1 999 1000
567 1 4519 4520
568 1 3984 3985
569 1 3985 3986
570 1 735 736
571 1 734 735
572 1 736 737
573 1 708 709
574 1 709 710
575 1 3582 3583
576 1 710 711
577 1 3219 3220
578 1 764 765
579 1 765 766
580 1 766 767
581 1 3531 3532
582 1 3532 3533
583 1 4991 4992
584 1 4990 4991
585 1 4989 4990
586 1 3220 3221
587 1 3221 3222
588 1 3222 3223
589 1 3527 3528
590 1 3528 3529
591 1 3529 3530
592 1 3530 3531
593 1 3533 3534
594 1 3534 3535
595 1 3535 3536
596 1 4401 4402
597 1 4402 4403
598 1 2953 2954
599 1 2952 2953
600 1 3202 3203
601 1 3201 3202
602 1 3203 3204
603 1 2954 2955
604 1 2955 2956
605 1 2956 2957
606 1 4011 4012
607 1 4012 4013
608 1 4013 4014
609 1 3476 3477
610 1 3475 3476
611 1 3412 3413
612 1 3411 3412
613 1 3409 3410
614 1 3410 3411
615 1 4920 4921
616 1 3244 3245
617 1 3245 3246
618 1 3407 3408
619 1 3408 3409
620 1 4917 4918
621 1 4918 4919
622 1 4919 4920
623 1 3613 3614
624 1 3439 3440
625 1 3440 3441
626 1 3405 3406
627 1 3404 3405
628 1 3406 3407
629 1 3512 3513
630 1 3511 3512
631 1 3614 3615
632 1 3615 3616
633 1 3441 3442
634 1 3403 3404
635 1 3510 3511
636 1 3509 3510
637 1 3508 3509
638 1 3507 3508
639 1 3454 3455
640 1 3506 3507
641 1 3505 3506
642 1 3379 3380
643 1 3380 3381
644 1 3377 3378
645 1 3376 3377
646 1 3375 3376
647 1 1028 1029
648 1 1029 1030
649 1 1207 1208
650 1 1208 1209
651 1 652 653
652 1 653 654
653 1 936 937
654 1 935 936
655 1 934 935
656 1 2991 2992
657 1 2992 2993
658 1 4476 4477
659 1 4475 4476
660 1 2051 2052
661 1 195 196
662 1 2993 2994
663 1 657 658
664 1 4474 4475
665 1 4473 4474
666 1 196 197
667 1 205 206
668 1 206 207
669 1 207 208
670 1 659 660
671 1 658 659
672 1 252 253
673 1 661 662
674 1 660 661
675 1 3810 3811
676 1 3809 3810
677 1 251 252
678 1 637 638
679 1 636 637
680 1 663 664
681 1 662 663
682 1 170 171
683 1 1232 1233
684 1 143 144
685 1 142 143
686 1 141 142
687 1 140 141
688 1 168 169
689 1 169 170
690 1 2298 2299
691 1 2299 2300
692 1 1233 1234
693 1 1234 1235
694 1 1006 1007
695 1 1005 1006
696 1 1004 1005
697 1 1086 1087
698 1 1087 1088
699 1 1088 1089
700 1 3753 3754
701 1 4423 4424
702 1 3754 3755
703 1 3755 3756
704 1 3756 3757
705 1 4973 4974
706 1 4974 4975
707 1 4975 4976
708 1 4422 4423
709 1 4421 4422
710 1 4955 4956
711 1 4956 4957
712 1 801 802
713 1 802 803
714 1 803 804
715 1 4520 4521
716 1 4521 4522
717 1 4419 4420
718 1 4420 4421
719 1 732 733
720 1 733 734
721 1 804 805
722 1 805 806
723 1 3581 3582
724 1 3579 3580
725 1 3580 3581
726 1 4418 4419
727 1 4417 4418
728 1 711 712
729 1 712 713
730 1 806 807
731 1 807 808
732 1 3224 3225
733 1 3223 3224
734 1 4415 4416
735 1 4416 4417
736 1 767 768
737 1 768 769
738 1 808 809
739 1 4988 4989
740 1 4987 4988
741 1 4986 4987
742 1 4985 4986
743 1 3422 3423
744 1 769 770
745 1 770 771
746 1 771 772
747 1 3536 3537
748 1 3537 3538
749 1 811 812
750 1 810 811
751 1 4403 4404
752 1 4404 4405
753 1 4405 4406
754 1 4406 4407
755 1 4407 4408
756 1 3420 3421
757 1 3421 3422
758 1 3418 3419
759 1 3419 3420
760 1 3417 3418
761 1 812 813
762 1 813 814
763 1 2951 2952
764 1 3416 3417
765 1 3415 3416
766 1 3254 3255
767 1 3255 3256
768 1 3256 3257
769 1 3257 3258
770 1 3258 3259
771 1 3259 3260
772 1 3190 3191
773 1 4014 4015
774 1 3474 3475
775 1 3473 3474
776 1 3472 3473
777 1 3413 3414
778 1 3414 3415
779 1 3260 3261
780 1 3261 3262
781 1 3262 3263
782 1 3191 3192
783 1 4015 4016
784 1 3263 3264
785 1 3264 3265
786 1 3242 3243
787 1 3243 3244
788 1 3241 3242
789 1 3196 3197
790 1 3194 3195
791 1 3195 3196
792 1 3192 3193
793 1 3193 3194
794 1 3435 3436
795 1 3265 3266
796 1 3266 3267
797 1 3267 3268
798 1 3436 3437
799 1 3437 3438
800 1 4896 4897
801 1 4895 4896
802 1 4894 4895
803 1 4916 4917
804 1 3268 3269
805 1 3269 3270
806 1 3438 3439
807 1 4898 4899
808 1 4899 4900
809 1 4897 4898
810 1 4913 4914
811 1 4915 4916
812 1 4914 4915
813 1 3270 3271
814 1 3616 3617
815 1 3617 3618
816 1 3460 3461
817 1 3458 3459
818 1 3459 3460
819 1 3799 3800
820 1 3798 3799
821 1 3797 3798
822 1 3455 3456
823 1 3456 3457
824 1 3457 3458
825 1 651 652
826 1 3791 3792
827 1 3790 3791
828 1 3789 3790
829 1 3788 3789
830 1 3372 3373
831 1 3374 3375
832 1 3373 3374
833 1 1027 1028
834 1 1026 1027
835 1 1025 1026
836 1 1210 1211
837 1 1209 1210
838 1 3787 3788
839 1 3786 3787
840 1 3785 3786
841 1 933 934
842 1 932 933
843 1 931 932
844 1 930 931
845 1 654 655
846 1 655 656
847 1 3784 3785
848 1 3783 3784
849 1 3782 3783
850 1 197 198
851 1 209 210
852 1 210 211
853 1 2994 2995
854 1 2995 2996
855 1 2996 2997
856 1 2997 2998
857 1 2998 2999
858 1 656 657
859 1 1225 1226
860 1 4472 4473
861 1 4471 4472
862 1 3781 3782
863 1 3780 3781
864 1 198 199
865 1 208 209
866 1 1227 1228
867 1 1226 1227
868 1 253 254
869 1 3779 3780
870 1 3778 3779
871 1 3777 3778
872 1 1288 1289
873 1 1229 1230
874 1 1230 1231
875 1 1228 1229
876 1 3812 3813
877 1 3811 3812
878 1 255 256
879 1 254 255
880 1 3776 3777
881 1 3775 3776
882 1 3774 3775
883 1 1290 1291
884 1 1289 1290
885 1 635 636
886 1 138 139
887 1 137 138
888 1 3773 3774
889 1 3772 3773
890 1 1010 1011
891 1 601 602
892 1 1293 1294
893 1 634 635
894 1 1231 1232
895 1 139 140
896 1 1009 1010
897 1 1008 1009
898 1 603 604
899 1 602 603
900 1 1295 1296
901 1 1294 1295
902 1 1007 1008
903 1 605 606
904 1 604 605
905 1 1297 1298
906 1 1296 1297
907 1 1235 1236
908 1 1236 1237
909 1 1237 1238
910 1 1298 1299
911 1 1299 1300
912 1 1089 1090
913 1 4426 4427
914 1 3751 3752
915 1 3752 3753
916 1 1090 1091
917 1 1091 1092
918 1 1092 1093
919 1 3886 3887
920 1 3887 3888
921 1 4425 4426
922 1 4424 4425
923 1 3757 3758
924 1 3758 3759
925 1 3759 3760
926 1 3888 3889
927 1 3889 3890
928 1 3890 3891
929 1 3891 3892
930 1 3892 3893
931 1 3893 3894
932 1 4951 4952
933 1 4954 4955
934 1 4952 4953
935 1 4953 4954
936 1 4977 4978
937 1 4976 4977
938 1 4522 4523
939 1 3577 3578
940 1 3578 3579
941 1 730 731
942 1 731 732
943 1 4979 4980
944 1 4980 4981
945 1 4978 4979
946 1 4523 4524
947 1 4524 4525
948 1 714 715
949 1 713 714
950 1 4982 4983
951 1 4981 4982
952 1 4413 4414
953 1 4414 4415
954 1 4412 4413
955 1 809 810
956 1 4983 4984
957 1 4984 4985
958 1 3225 3226
959 1 4408 4409
960 1 4409 4410
961 1 4410 4411
962 1 4411 4412
963 1 772 773
964 1 773 774
965 1 774 775
966 1 776 777
967 1 775 776
968 1 777 778
969 1 3538 3539
970 1 3539 3540
971 1 3226 3227
972 1 3227 3228
973 1 3426 3427
974 1 3425 3426
975 1 3424 3425
976 1 3423 3424
977 1 3429 3430
978 1 3427 3428
979 1 3428 3429
980 1 3251 3252
981 1 3253 3254
982 1 3252 3253
983 1 815 816
984 1 816 817
985 1 814 815
986 1 3189 3190
987 1 3188 3189
988 1 3431 3432
989 1 3430 3431
990 1 3471 3472
991 1 817 818
992 1 3240 3241
993 1 3239 3240
994 1 4016 4017
995 1 4017 4018
996 1 3432 3433
997 1 3433 3434
998 1 3470 3471
999 1 3469 3470
1000 1 3197 3198
1001 1 3198 3199
1002 1 3434 3435
1003 1 3468 3469
1004 1 3467 3468
1005 1 4891 4892
1006 1 4890 4891
1007 1 3465 3466
1008 1 3466 3467
1009 1 4893 4894
1010 1 4892 4893
1011 1 2947 2948
1012 1 2948 2949
1013 1 2949 2950
1014 1 3620 3621
1015 1 3463 3464
1016 1 3464 3465
1017 1 3462 3463
1018 1 4910 4911
1019 1 4912 4913
1020 1 4911 4912
1021 1 3271 3272
1022 1 3272 3273
1023 1 3618 3619
1024 1 3619 3620
1025 1 3461 3462
1026 1 3273 3274
1027 1 3299 3300
1028 1 3298 3299
1029 1 3796 3797
1030 1 3795 3796
1031 1 3794 3795
1032 1 3793 3794
1033 1 3792 3793
1034 1 249 250
1035 1 3001 3002
1036 1 3002 3003
1037 1 247 248
1038 1 3369 3370
1039 1 3371 3372
1040 1 3370 3371
1041 1 1194 1195
1042 1 1211 1212
1043 1 1212 1213
1044 1 1213 1214
1045 1 1024 1025
1046 1 1023 1024
1047 1 1022 1023
1048 1 929 930
1049 1 928 929
1050 1 211 212
1051 1 212 213
1052 1 2999 3000
1053 1 1224 1225
1054 1 1223 1224
1055 1 4470 4471
1056 1 199 200
1057 1 4469 4470
1058 1 1286 1287
1059 1 1287 1288
1060 1 1285 1286
1061 1 3815 3816
1062 1 3813 3814
1063 1 3814 3815
1064 1 257 258
1065 1 256 257
1066 1 135 136
1067 1 134 135
1068 1 1013 1014
1069 1 136 137
1070 1 3771 3772
1071 1 1012 1013
1072 1 1011 1012
1073 1 1292 1293
1074 1 1291 1292
1075 1 633 634
1076 1 632 633
1077 1 3770 3771
1078 1 3769 3770
1079 1 3768 3769
1080 1 4448 4449
1081 1 4447 4448
1082 1 4446 4447
1083 1 3767 3768
1084 1 3766 3767
1085 1 4449 4450
1086 1 4430 4431
1087 1 4429 4430
1088 1 4428 4429
1089 1 3764 3765
1090 1 3765 3766
1091 1 606 607
1092 1 607 608
1093 1 1238 1239
1094 1 1239 1240
1095 1 4427 4428
1096 1 3762 3763
1097 1 3763 3764
1098 1 608 609
1099 1 609 610
1100 1 610 611
1101 1 3883 3884
1102 1 3885 3886
1103 1 3884 3885
1104 1 3760 3761
1105 1 3761 3762
1106 1 611 612
1107 1 1093 1094
1108 1 1094 1095
1109 1 1095 1096
1110 1 3575 3576
1111 1 3576 3577
1112 1 3574 3575
1113 1 3894 3895
1114 1 3895 3896
1115 1 3896 3897
1116 1 729 730
1117 1 728 729
1118 1 4525 4526
1119 1 4526 4527
1120 1 715 716
1121 1 3749 3750
1122 1 3748 3749
1123 1 716 717
1124 1 779 780
1125 1 780 781
1126 1 3747 3748
1127 1 3746 3747
1128 1 778 779
1129 1 3540 3541
1130 1 3541 3542
1131 1 3231 3232
1132 1 3230 3231
1133 1 3228 3229
1134 1 3229 3230
1135 1 3185 3186
1136 1 3237 3238
1137 1 3234 3235
1138 1 3236 3237
1139 1 3235 3236
1140 1 3232 3233
1141 1 3233 3234
1142 1 3186 3187
1143 1 3187 3188
1144 1 818 819
1145 1 3238 3239
1146 1 4018 4019
1147 1 819 820
1148 1 820 821
1149 1 3199 3200
1150 1 2944 2945
1151 1 2943 2944
1152 1 4019 4020
1153 1 4020 4021
1154 1 3625 3626
1155 1 3626 3627
1156 1 4889 4890
1157 1 4888 4889
1158 1 4887 4888
1159 1 3315 3316
1160 1 2946 2947
1161 1 2945 2946
1162 1 3623 3624
1163 1 3624 3625
1164 1 3320 3321
1165 1 3319 3320
1166 1 3318 3319
1167 1 3317 3318
1168 1 3316 3317
1169 1 3621 3622
1170 1 3622 3623
1171 1 3701 3702
1172 1 3324 3325
1173 1 3322 3323
1174 1 3323 3324
1175 1 3321 3322
1176 1 3671 3672
1177 1 3672 3673
1178 1 3702 3703
1179 1 4907 4908
1180 1 4908 4909
1181 1 4909 4910
1182 1 3274 3275
1183 1 3275 3276
1184 1 3674 3675
1185 1 3673 3674
1186 1 3675 3676
1187 1 3364 3365
1188 1 3363 3364
1189 1 3365 3366
1190 1 3005 3006
1191 1 3006 3007
1192 1 248 249
1193 1 3366 3367
1194 1 3367 3368
1195 1 3368 3369
1196 1 3297 3298
1197 1 3296 3297
1198 1 1199 1200
1199 1 1198 1199
1200 1 1197 1198
1201 1 1196 1197
1202 1 1195 1196
1203 1 3004 3005
1204 1 3003 3004
1205 1 3680 3681
1206 1 3679 3680
1207 1 3681 3682
1208 1 3682 3683
1209 1 4385 4386
1210 1 4384 4385
1211 1 246 247
1212 1 245 246
1213 1 1193 1194
1214 1 1191 1192
1215 1 1192 1193
1216 1 1190 1191
1217 1 1189 1190
1218 1 1188 1189
1219 1 1214 1215
1220 1 1215 1216
1221 1 1216 1217
1222 1 1219 1220
1223 1 3683 3684
1224 1 244 245
1225 1 1218 1219
1226 1 1217 1218
1227 1 1220 1221
1228 1 1221 1222
1229 1 1222 1223
1230 1 927 928
1231 1 926 927
1232 1 925 926
1233 1 1020 1021
1234 1 1019 1020
1235 1 1021 1022
1236 1 213 214
1237 1 215 216
1238 1 214 215
1239 1 1018 1019
1240 1 1017 1018
1241 1 3817 3818
1242 1 4468 4469
1243 1 4467 4468
1244 1 1015 1016
1245 1 1016 1017
1246 1 1284 1285
1247 1 1283 1284
1248 1 1282 1283
1249 1 1123 1124
1250 1 1124 1125
1251 1 3816 3817
1252 1 260 261
1253 1 259 260
1254 1 258 259
1255 1 133 134
1256 1 132 133
1257 1 1014 1015
1258 1 1121 1122
1259 1 1122 1123
1260 1 1119 1120
1261 1 1120 1121
1262 1 4444 4445
1263 1 4443 4444
1264 1 4445 4446
1265 1 630 631
1266 1 631 632
1267 1 629 630
1268 1 1117 1118
1269 1 1118 1119
1270 1 4435 4436
1271 1 4433 4434
1272 1 4434 4435
1273 1 4432 4433
1274 1 4431 4432
1275 1 1116 1117
1276 1 1115 1116
1277 1 1114 1115
1278 1 1240 1241
1279 1 3880 3881
1280 1 3881 3882
1281 1 3882 3883
1282 1 599 600
1283 1 1241 1242
1284 1 1242 1243
1285 1 1243 1244
1286 1 3570 3571
1287 1 598 599
1288 1 597 598
1289 1 612 613
1290 1 613 614
1291 1 3572 3573
1292 1 3573 3574
1293 1 3571 3572
1294 1 614 615
1295 1 1096 1097
1296 1 1097 1098
1297 1 3897 3898
1298 1 3898 3899
1299 1 727 728
1300 1 726 727
1301 1 4527 4528
1302 1 3640 3641
1303 1 3641 3642
1304 1 3899 3900
1305 1 718 719
1306 1 717 718
1307 1 784 785
1308 1 782 783
1309 1 783 784
1310 1 4528 4529
1311 1 3639 3640
1312 1 3638 3639
1313 1 781 782
1314 1 3636 3637
1315 1 3637 3638
1316 1 3635 3636
1317 1 3634 3635
1318 1 3745 3746
1319 1 3744 3745
1320 1 3743 3744
1321 1 3544 3545
1322 1 3543 3544
1323 1 3542 3543
1324 1 3184 3185
1325 1 3183 3184
1326 1 3632 3633
1327 1 3633 3634
1328 1 1347 1348
1329 1 3630 3631
1330 1 3631 3632
1331 1 3351 3352
1332 1 1348 1349
1333 1 1349 1350
1334 1 2940 2941
1335 1 2942 2943
1336 1 2941 2942
1337 1 3665 3666
1338 1 3629 3630
1339 1 3628 3629
1340 1 3352 3353
1341 1 3353 3354
1342 1 821 822
1343 1 822 823
1344 1 3667 3668
1345 1 3666 3667
1346 1 4021 4022
1347 1 4022 4023
1348 1 3627 3628
1349 1 3355 3356
1350 1 3354 3355
1351 1 4886 4887
1352 1 4885 4886
1353 1 3314 3315
1354 1 3313 3314
1355 1 3312 3313
1356 1 3311 3312
1357 1 3668 3669
1358 1 3670 3671
1359 1 3669 3670
1360 1 3356 3357
1361 1 3357 3358
1362 1 3358 3359
1363 1 3359 3360
1364 1 3360 3361
1365 1 3326 3327
1366 1 3325 3326
1367 1 3703 3704
1368 1 3704 3705
1369 1 3361 3362
1370 1 3362 3363
1371 1 4905 4906
1372 1 4906 4907
1373 1 3328 3329
1374 1 3327 3328
1375 1 3276 3277
1376 1 3277 3278
1377 1 3676 3677
1378 1 3007 3008
1379 1 3008 3009
1380 1 3009 3010
1381 1 3677 3678
1382 1 3678 3679
1383 1 4387 4388
1384 1 4388 4389
1385 1 4386 4387
1386 1 3295 3296
1387 1 3294 3295
1388 1 4383 4384
1389 1 4382 4383
1390 1 1187 1188
1391 1 1186 1187
1392 1 1185 1186
1393 1 1184 1185
1394 1 3684 3685
1395 1 3685 3686
1396 1 3686 3687
1397 1 3687 3688
1398 1 243 244
1399 1 242 243
1400 1 924 925
1401 1 923 924
1402 1 922 923
1403 1 921 922
1404 1 241 242
1405 1 240 241
1406 1 216 217
1407 1 217 218
1408 1 239 240
1409 1 238 239
1410 1 237 238
1411 1 236 237
1412 1 1127 1128
1413 1 1126 1127
1414 1 1125 1126
1415 1 3820 3821
1416 1 3819 3820
1417 1 3818 3819
1418 1 4466 4467
1419 1 4465 4466
1420 1 4464 4465
1421 1 131 132
1422 1 130 131
1423 1 235 236
1424 1 889 890
1425 1 1281 1282
1426 1 261 262
1427 1 262 263
1428 1 886 887
1429 1 887 888
1430 1 888 889
1431 1 1280 1281
1432 1 1279 1280
1433 1 877 878
1434 1 878 879
1435 1 879 880
1436 1 880 881
1437 1 881 882
1438 1 883 884
1439 1 882 883
1440 1 885 886
1441 1 884 885
1442 1 4442 4443
1443 1 4441 4442
1444 1 4439 4440
1445 1 4440 4441
1446 1 4437 4438
1447 1 4438 4439
1448 1 4436 4437
1449 1 3561 3562
1450 1 3560 3561
1451 1 3559 3560
1452 1 3558 3559
1453 1 627 628
1454 1 628 629
1455 1 626 627
1456 1 3564 3565
1457 1 3563 3564
1458 1 3562 3563
1459 1 1113 1114
1460 1 1112 1113
1461 1 3879 3880
1462 1 3878 3879
1463 1 3566 3567
1464 1 3567 3568
1465 1 3565 3566
1466 1 1111 1112
1467 1 1110 1111
1468 1 1245 1246
1469 1 1244 1245
1470 1 3569 3570
1471 1 3568 3569
1472 1 596 597
1473 1 618 619
1474 1 1108 1109
1475 1 1109 1110
1476 1 1246 1247
1477 1 1247 1248
1478 1 1248 1249
1479 1 1249 1250
1480 1 3645 3646
1481 1 3646 3647
1482 1 595 596
1483 1 594 595
1484 1 593 594
1485 1 592 593
1486 1 615 616
1487 1 616 617
1488 1 617 618
1489 1 1106 1107
1490 1 1107 1108
1491 1 1098 1099
1492 1 3642 3643
1493 1 3644 3645
1494 1 3643 3644
1495 1 725 726
1496 1 724 725
1497 1 591 592
1498 1 785 786
1499 1 786 787
1500 1 1105 1106
1501 1 1099 1100
1502 1 723 724
1503 1 722 723
1504 1 721 722
1505 1 719 720
1506 1 720 721
1507 1 1253 1254
1508 1 4529 4530
1509 1 4530 4531
1510 1 1252 1253
1511 1 1335 1336
1512 1 1251 1252
1513 1 3546 3547
1514 1 3545 3546
1515 1 1338 1339
1516 1 1336 1337
1517 1 1337 1338
1518 1 3181 3182
1519 1 3182 3183
1520 1 3742 3743
1521 1 3741 3742
1522 1 3740 3741
1523 1 1346 1347
1524 1 1345 1346
1525 1 1344 1345
1526 1 1343 1344
1527 1 1342 1343
1528 1 1341 1342
1529 1 1340 1341
1530 1 1339 1340
1531 1 2938 2939
1532 1 2939 2940
1533 1 3662 3663
1534 1 3661 3662
1535 1 3739 3740
1536 1 3738 3739
1537 1 1351 1352
1538 1 3663 3664
1539 1 3664 3665
1540 1 3737 3738
1541 1 3736 3737
1542 1 4023 4024
1543 1 4884 4885
1544 1 4883 4884
1545 1 823 824
1546 1 824 825
1547 1 825 826
1548 1 3310 3311
1549 1 3309 3310
1550 1 3308 3309
1551 1 4024 4025
1552 1 4025 4026
1553 1 4026 4027
1554 1 2916 2917
1555 1 2915 2916
1556 1 2914 2915
1557 1 2913 2914
1558 1 3015 3016
1559 1 3705 3706
1560 1 3706 3707
1561 1 4904 4905
1562 1 4903 4904
1563 1 4902 4903
1564 1 3331 3332
1565 1 3329 3330
1566 1 3330 3331
1567 1 3279 3280
1568 1 3280 3281
1569 1 3278 3279
1570 1 4390 4391
1571 1 3010 3011
1572 1 3011 3012
1573 1 3012 3013
1574 1 3014 3015
1575 1 3013 3014
1576 1 4389 4390
1577 1 4381 4382
1578 1 4380 4381
1579 1 4379 4380
1580 1 3293 3294
1581 1 3292 3293
1582 1 916 917
1583 1 1182 1183
1584 1 1183 1184
1585 1 3688 3689
1586 1 3689 3690
1587 1 276 277
1588 1 278 279
1589 1 277 278
1590 1 920 921
1591 1 919 920
1592 1 918 919
1593 1 917 918
1594 1 218 219
1595 1 219 220
1596 1 1129 1130
1597 1 1128 1129
1598 1 3822 3823
1599 1 3823 3824
1600 1 3821 3822
1601 1 128 129
1602 1 129 130
1603 1 127 128
1604 1 234 235
1605 1 233 234
1606 1 232 233
1607 1 231 232
1608 1 230 231
1609 1 229 230
1610 1 890 891
1611 1 891 892
1612 1 892 893
1613 1 893 894
1614 1 894 895
1615 1 4463 4464
1616 1 4462 4463
1617 1 4461 4462
1618 1 264 265
1619 1 1278 1279
1620 1 4460 4461
1621 1 263 264
1622 1 873 874
1623 1 874 875
1624 1 876 877
1625 1 875 876
1626 1 1277 1278
1627 1 1276 1277
1628 1 321 322
1629 1 2149 2150
1630 1 2148 2149
1631 1 2147 2148
1632 1 3557 3558
1633 1 3554 3555
1634 1 3556 3557
1635 1 3555 3556
1636 1 624 625
1637 1 625 626
1638 1 622 623
1639 1 623 624
1640 1 3877 3878
1641 1 3876 3877
1642 1 3648 3649
1643 1 3649 3650
1644 1 3937 3938
1645 1 3936 3937
1646 1 3938 3939
1647 1 619 620
1648 1 620 621
1649 1 621 622
1650 1 3647 3648
1651 1 3935 3936
1652 1 3928 3929
1653 1 3927 3928
1654 1 590 591
1655 1 589 590
1656 1 787 788
1657 1 788 789
1658 1 1104 1105
1659 1 1255 1256
1660 1 1256 1257
1661 1 3925 3926
1662 1 3926 3927
1663 1 3924 3925
1664 1 587 588
1665 1 588 589
1666 1 586 587
1667 1 1101 1102
1668 1 1102 1103
1669 1 1103 1104
1670 1 1254 1255
1671 1 4531 4532
1672 1 4532 4533
1673 1 4533 4534
1674 1 3652 3653
1675 1 3651 3652
1676 1 3923 3924
1677 1 3922 3923
1678 1 585 586
1679 1 584 585
1680 1 583 584
1681 1 582 583
1682 1 1333 1334
1683 1 1331 1332
1684 1 1332 1333
1685 1 3654 3655
1686 1 3653 3654
1687 1 3919 3920
1688 1 3920 3921
1689 1 3921 3922
1690 1 581 582
1691 1 580 581
1692 1 579 580
1693 1 578 579
1694 1 577 578
1695 1 576 577
1696 1 575 576
1697 1 574 575
1698 1 573 574
1699 1 1334 1335
1700 1 3655 3656
1701 1 3656 3657
1702 1 3918 3919
1703 1 3917 3918
1704 1 3548 3549
1705 1 3547 3548
1706 1 2936 2937
1707 1 2935 2936
1708 1 3180 3181
1709 1 3179 3180
1710 1 3657 3658
1711 1 3658 3659
1712 1 3916 3917
1713 1 447 448
1714 1 446 447
1715 1 1356 1357
1716 1 1355 1356
1717 1 1354 1355
1718 1 1353 1354
1719 1 2937 2938
1720 1 3660 3661
1721 1 3659 3660
1722 1 448 449
1723 1 449 450
1724 1 1352 1353
1725 1 3735 3736
1726 1 3306 3307
1727 1 3305 3306
1728 1 3022 3023
1729 1 3734 3735
1730 1 3733 3734
1731 1 4882 4883
1732 1 4881 4882
1733 1 826 827
1734 1 2921 2922
1735 1 2920 2921
1736 1 3307 3308
1737 1 3021 3022
1738 1 3020 3021
1739 1 4027 4028
1740 1 4028 4029
1741 1 4029 4030
1742 1 4030 4031
1743 1 4031 4032
1744 1 4032 4033
1745 1 2918 2919
1746 1 2917 2918
1747 1 2919 2920
1748 1 3019 3020
1749 1 3018 3019
1750 1 2911 2912
1751 1 2912 2913
1752 1 2909 2910
1753 1 2910 2911
1754 1 2908 2909
1755 1 2907 2908
1756 1 3016 3017
1757 1 3017 3018
1758 1 3707 3708
1759 1 3708 3709
1760 1 4901 4902
1761 1 3332 3333
1762 1 3333 3334
1763 1 3282 3283
1764 1 3281 3282
1765 1 4391 4392
1766 1 4392 4393
1767 1 4393 4394
1768 1 3334 3335
1769 1 4378 4379
1770 1 4377 4378
1771 1 3291 3292
1772 1 3290 3291
1773 1 1181 1182
1774 1 1697 1698
1775 1 1696 1697
1776 1 3690 3691
1777 1 3691 3692
1778 1 281 282
1779 1 282 283
1780 1 283 284
1781 1 284 285
1782 1 285 286
1783 1 915 916
1784 1 914 915
1785 1 912 913
1786 1 913 914
1787 1 911 912
1788 1 1179 1180
1789 1 1180 1181
1790 1 1698 1699
1791 1 1699 1700
1792 1 275 276
1793 1 280 281
1794 1 279 280
1795 1 1132 1133
1796 1 271 272
1797 1 274 275
1798 1 272 273
1799 1 273 274
1800 1 220 221
1801 1 221 222
1802 1 1131 1132
1803 1 1130 1131
1804 1 270 271
1805 1 269 270
1806 1 125 126
1807 1 126 127
1808 1 226 227
1809 1 225 226
1810 1 223 224
1811 1 224 225
1812 1 222 223
1813 1 3826 3827
1814 1 3825 3826
1815 1 3824 3825
1816 1 267 268
1817 1 268 269
1818 1 228 229
1819 1 227 228
1820 1 895 896
1821 1 896 897
1822 1 897 898
1823 1 266 267
1824 1 265 266
1825 1 325 326
1826 1 326 327
1827 1 324 325
1828 1 4458 4459
1829 1 4459 4460
1830 1 872 873
1831 1 323 324
1832 1 322 323
1833 1 1275 1276
1834 1 4456 4457
1835 1 4457 4458
1836 1 4699 4700
1837 1 4698 4699
1838 1 871 872
1839 1 317 318
1840 1 320 321
1841 1 319 320
1842 1 318 319
1843 1 2146 2147
1844 1 2145 2146
1845 1 1274 1275
1846 1 1273 1274
1847 1 4454 4455
1848 1 4455 4456
1849 1 4070 4071
1850 1 4069 4070
1851 1 4068 4069
1852 1 3553 3554
1853 1 3552 3553
1854 1 3551 3552
1855 1 4452 4453
1856 1 4451 4452
1857 1 4453 4454
1858 1 4067 4068
1859 1 4066 4067
1860 1 3944 3945
1861 1 3945 3946
1862 1 3946 3947
1863 1 4065 4066
1864 1 4064 4065
1865 1 3939 3940
1866 1 3940 3941
1867 1 3941 3942
1868 1 3942 3943
1869 1 3943 3944
1870 1 3875 3876
1871 1 3874 3875
1872 1 4063 4064
1873 1 4062 4063
1874 1 4061 4062
1875 1 1260 1261
1876 1 3931 3932
1877 1 3932 3933
1878 1 3933 3934
1879 1 3934 3935
1880 1 789 790
1881 1 790 791
1882 1 791 792
1883 1 1258 1259
1884 1 1259 1260
1885 1 1257 1258
1886 1 3929 3930
1887 1 3930 3931
1888 1 1328 1329
1889 1 4334 4335
1890 1 4336 4337
1891 1 4335 4336
1892 1 1330 1331
1893 1 1329 1330
1894 1 571 572
1895 1 4534 4535
1896 1 4535 4536
1897 1 1364 1365
1898 1 1365 1366
1899 1 1363 1364
1900 1 1362 1363
1901 1 572 573
1902 1 1359 1360
1903 1 1361 1362
1904 1 1360 1361
1905 1 1358 1359
1906 1 3549 3550
1907 1 2932 2933
1908 1 2931 2932
1909 1 2934 2935
1910 1 2933 2934
1911 1 3178 3179
1912 1 3177 3178
1913 1 3915 3916
1914 1 444 445
1915 1 445 446
1916 1 1357 1358
1917 1 3914 3915
1918 1 3913 3914
1919 1 2925 2926
1920 1 3026 3027
1921 1 3025 3026
1922 1 3911 3912
1923 1 3912 3913
1924 1 2922 2923
1925 1 2923 2924
1926 1 2924 2925
1927 1 3304 3305
1928 1 3303 3304
1929 1 3302 3303
1930 1 3023 3024
1931 1 3024 3025
1932 1 3910 3911
1933 1 4037 4038
1934 1 4038 4039
1935 1 4880 4881
1936 1 4879 4880
1937 1 828 829
1938 1 827 828
1939 1 2904 2905
1940 1 2905 2906
1941 1 4033 4034
1942 1 4035 4036
1943 1 4034 4035
1944 1 4036 4037
1945 1 3732 3733
1946 1 3731 3732
1947 1 2906 2907
1948 1 3730 3731
1949 1 4395 4396
1950 1 4394 4395
1951 1 3709 3710
1952 1 3710 3711
1953 1 3337 3338
1954 1 3336 3337
1955 1 3285 3286
1956 1 3283 3284
1957 1 3284 3285
1958 1 901 902
1959 1 902 903
1960 1 4376 4377
1961 1 4375 4376
1962 1 3335 3336
1963 1 3288 3289
1964 1 3287 3288
1965 1 3286 3287
1966 1 905 906
1967 1 903 904
1968 1 904 905
1969 1 3289 3290
1970 1 910 911
1971 1 909 910
1972 1 908 909
1973 1 907 908
1974 1 906 907
1975 1 3693 3694
1976 1 3692 3693
1977 1 286 287
1978 1 287 288
1979 1 288 289
1980 1 289 290
1981 1 290 291
1982 1 291 292
1983 1 292 293
1984 1 293 294
1985 1 1136 1137
1986 1 1178 1179
1987 1 1177 1178
1988 1 1134 1135
1989 1 1135 1136
1990 1 1133 1134
1991 1 122 123
1992 1 123 124
1993 1 4715 4716
1994 1 4714 4715
1995 1 3827 3828
1996 1 3828 3829
1997 1 124 125
1998 1 4716 4717
1999 1 4717 4718
2000 1 3851 3852
2001 1 3852 3853
2002 1 4719 4720
2003 1 4718 4719
2004 1 327 328
2005 1 328 329
2006 1 329 330
2007 1 898 899
2008 1 899 900
2009 1 4076 4077
2010 1 4720 4721
2011 1 4721 4722
2012 1 4074 4075
2013 1 4075 4076
2014 1 4073 4074
2015 1 4071 4072
2016 1 4072 4073
2017 1 870 871
2018 1 869 870
2019 1 868 869
2020 1 314 315
2021 1 315 316
2022 1 316 317
2023 1 2144 2145
2024 1 2143 2144
2025 1 1272 1273
2026 1 4697 4698
2027 1 4696 4697
2028 1 3948 3949
2029 1 3949 3950
2030 1 1271 1272
2031 1 1270 1271
2032 1 1269 1270
2033 1 4695 4696
2034 1 4694 4695
2035 1 3947 3948
2036 1 401 402
2037 1 402 403
2038 1 794 795
2039 1 1266 1267
2040 1 1265 1266
2041 1 1264 1265
2042 1 3873 3874
2043 1 3872 3873
2044 1 525 526
2045 1 527 528
2046 1 526 527
2047 1 528 529
2048 1 529 530
2049 1 530 531
2050 1 531 532
2051 1 532 533
2052 1 792 793
2053 1 793 794
2054 1 1262 1263
2055 1 1263 1264
2056 1 1261 1262
2057 1 4060 4061
2058 1 4059 4060
2059 1 549 550
2060 1 4331 4332
2061 1 4058 4059
2062 1 4057 4058
2063 1 548 549
2064 1 547 548
2065 1 1325 1326
2066 1 1327 1328
2067 1 1326 1327
2068 1 4332 4333
2069 1 4333 4334
2070 1 1369 1370
2071 1 1368 1369
2072 1 4337 4338
2073 1 4338 4339
2074 1 1366 1367
2075 1 1367 1368
2076 1 569 570
2077 1 570 571
2078 1 568 569
2079 1 4536 4537
2080 1 4537 4538
2081 1 4339 4340
2082 1 4340 4341
2083 1 3031 3032
2084 1 3032 3033
2085 1 3033 3034
2086 1 4538 4539
2087 1 4341 4342
2088 1 4342 4343
2089 1 443 444
2090 1 442 443
2091 1 441 442
2092 1 3176 3177
2093 1 3175 3176
2094 1 3030 3031
2095 1 3029 3030
2096 1 4343 4344
2097 1 4344 4345
2098 1 4044 4045
2099 1 4045 4046
2100 1 1758 1759
2101 1 1757 1758
2102 1 2928 2929
2103 1 2927 2928
2104 1 2929 2930
2105 1 2930 2931
2106 1 3027 3028
2107 1 3028 3029
2108 1 4042 4043
2109 1 4043 4044
2110 1 1755 1756
2111 1 1756 1757
2112 1 2926 2927
2113 1 2901 2902
2114 1 4041 4042
2115 1 4040 4041
2116 1 1754 1755
2117 1 1753 1754
2118 1 1572 1573
2119 1 1574 1575
2120 1 1573 1574
2121 1 3301 3302
2122 1 2903 2904
2123 1 2902 2903
2124 1 3909 3910
2125 1 4039 4040
2126 1 4878 4879
2127 1 4877 4878
2128 1 829 830
2129 1 830 831
2130 1 831 832
2131 1 3907 3908
2132 1 3908 3909
2133 1 1429 1430
2134 1 4399 4400
2135 1 4398 4399
2136 1 3905 3906
2137 1 3906 3907
2138 1 3341 3342
2139 1 3729 3730
2140 1 3728 3729
2141 1 3727 3728
2142 1 1426 1427
2143 1 1427 1428
2144 1 1428 1429
2145 1 4397 4398
2146 1 4396 4397
2147 1 3711 3712
2148 1 3712 3713
2149 1 3340 3341
2150 1 3339 3340
2151 1 3338 3339
2152 1 4374 4375
2153 1 2899 2900
2154 1 2898 2899
2155 1 1695 1696
2156 1 1694 1695
2157 1 4373 4374
2158 1 294 295
2159 1 1138 1139
2160 1 1137 1138
2161 1 1176 1177
2162 1 1175 1176
2163 1 4114 4115
2164 1 4115 4116
2165 1 4116 4117
2166 1 120 121
2167 1 119 120
2168 1 4117 4118
2169 1 4119 4120
2170 1 4118 4119
2171 1 4120 4121
2172 1 4121 4122
2173 1 121 122
2174 1 4710 4711
2175 1 4711 4712
2176 1 4712 4713
2177 1 4713 4714
2178 1 356 357
2179 1 355 356
2180 1 3829 3830
2181 1 3830 3831
2182 1 4707 4708
2183 1 4708 4709
2184 1 4709 4710
2185 1 354 355
2186 1 353 354
2187 1 352 353
2188 1 332 333
2189 1 330 331
2190 1 331 332
2191 1 4079 4080
2192 1 4706 4707
2193 1 4705 4706
2194 1 351 352
2195 1 3853 3854
2196 1 3854 3855
2197 1 4078 4079
2198 1 4077 4078
2199 1 4703 4704
2200 1 4704 4705
2201 1 310 311
2202 1 309 310
2203 1 2673 2674
2204 1 2674 2675
2205 1 4701 4702
2206 1 4702 4703
2207 1 4722 4723
2208 1 4723 4724
2209 1 311 312
2210 1 312 313
2211 1 313 314
2212 1 2675 2676
2213 1 2676 2677
2214 1 2677 2678
2215 1 2678 2679
2216 1 2679 2680
2217 1 2142 2143
2218 1 2141 2142
2219 1 2140 2141
2220 1 2680 2681
2221 1 867 868
2222 1 866 867
2223 1 404 405
2224 1 405 406
2225 1 4693 4694
2226 1 865 866
2227 1 1301 1302
2228 1 1302 1303
2229 1 1268 1269
2230 1 1267 1268
2231 1 403 404
2232 1 4692 4693
2233 1 795 796
2234 1 796 797
2235 1 3870 3871
2236 1 3871 3872
2237 1 523 524
2238 1 524 525
2239 1 533 534
2240 1 534 535
2241 1 520 521
2242 1 521 522
2243 1 522 523
2244 1 1374 1375
2245 1 1375 1376
2246 1 535 536
2247 1 536 537
2248 1 537 538
2249 1 538 539
2250 1 539 540
2251 1 1323 1324
2252 1 1322 1323
2253 1 1324 1325
2254 1 4328 4329
2255 1 4329 4330
2256 1 4330 4331
2257 1 1371 1372
2258 1 1372 1373
2259 1 1373 1374
2260 1 1376 1377
2261 1 1377 1378
2262 1 1378 1379
2263 1 540 541
2264 1 541 542
2265 1 542 543
2266 1 543 544
2267 1 544 545
2268 1 545 546
2269 1 546 547
2270 1 4054 4055
2271 1 4056 4057
2272 1 4055 4056
2273 1 1370 1371
2274 1 1379 1380
2275 1 1380 1381
2276 1 1381 1382
2277 1 566 567
2278 1 1382 1383
2279 1 1383 1384
2280 1 567 568
2281 1 439 440
2282 1 4049 4050
2283 1 1761 1762
2284 1 1762 1763
2285 1 1384 1385
2286 1 1385 1386
2287 1 3034 3035
2288 1 3035 3036
2289 1 4539 4540
2290 1 440 441
2291 1 4047 4048
2292 1 4048 4049
2293 1 1759 1760
2294 1 1760 1761
2295 1 1387 1388
2296 1 1386 1387
2297 1 3151 3152
2298 1 3152 3153
2299 1 4540 4541
2300 1 4541 4542
2301 1 4542 4543
2302 1 4345 4346
2303 1 4046 4047
2304 1 1388 1389
2305 1 1389 1390
2306 1 3174 3175
2307 1 3173 3174
2308 1 4346 4347
2309 1 4347 4348
2310 1 833 834
2311 1 1569 1570
2312 1 1570 1571
2313 1 1571 1572
2314 1 3349 3350
2315 1 3348 3349
2316 1 3347 3348
2317 1 1752 1753
2318 1 1751 1752
2319 1 832 833
2320 1 1575 1576
2321 1 1576 1577
2322 1 1577 1578
2323 1 3346 3347
2324 1 3345 3346
2325 1 3344 3345
2326 1 4876 4877
2327 1 4875 4876
2328 1 1430 1431
2329 1 1431 1432
2330 1 1432 1433
2331 1 1433 1434
2332 1 3904 3905
2333 1 3342 3343
2334 1 3343 3344
2335 1 1422 1423
2336 1 1423 1424
2337 1 1425 1426
2338 1 1424 1425
2339 1 3901 3902
2340 1 3902 3903
2341 1 3903 3904
2342 1 3713 3714
2343 1 3714 3715
2344 1 3725 3726
2345 1 3726 3727
2346 1 1419 1420
2347 1 1421 1422
2348 1 1420 1421
2349 1 1692 1693
2350 1 1691 1692
2351 1 1690 1691
2352 1 299 300
2353 1 2897 2898
2354 1 2896 2897
2355 1 1693 1694
2356 1 3694 3695
2357 1 3695 3696
2358 1 3696 3697
2359 1 4371 4372
2360 1 4372 4373
2361 1 295 296
2362 1 296 297
2363 1 297 298
2364 1 298 299
2365 1 4112 4113
2366 1 4113 4114
2367 1 1139 1140
2368 1 1173 1174
2369 1 1174 1175
2370 1 118 119
2371 1 117 118
2372 1 360 361
2373 1 359 360
2374 1 336 337
2375 1 335 336
2376 1 4122 4123
2377 1 4123 4124
2378 1 85 86
2379 1 86 87
2380 1 358 359
2381 1 357 358
2382 1 333 334
2383 1 334 335
2384 1 4082 4083
2385 1 87 88
2386 1 88 89
2387 1 304 305
2388 1 305 306
2389 1 3831 3832
2390 1 3832 3833
2391 1 4081 4082
2392 1 4080 4081
2393 1 306 307
2394 1 307 308
2395 1 2671 2672
2396 1 2670 2671
2397 1 3855 3856
2398 1 308 309
2399 1 2672 2673
2400 1 3856 3857
2401 1 3857 3858
2402 1 3858 3859
2403 1 4724 4725
2404 1 4725 4726
2405 1 4726 4727
2406 1 2151 2152
2407 1 2152 2153
2408 1 409 410
2409 1 410 411
2410 1 2153 2154
2411 1 2154 2155
2412 1 2139 2140
2413 1 2138 2139
2414 1 2681 2682
2415 1 408 409
2416 1 407 408
2417 1 2156 2157
2418 1 2155 2156
2419 1 2682 2683
2420 1 2683 2684
2421 1 2684 2685
2422 1 406 407
2423 1 864 865
2424 1 863 864
2425 1 1303 1304
2426 1 799 800
2427 1 798 799
2428 1 2157 2158
2429 1 2158 2159
2430 1 2159 2160
2431 1 2160 2161
2432 1 2685 2686
2433 1 2686 2687
2434 1 4691 4692
2435 1 4690 4691
2436 1 862 863
2437 1 861 862
2438 1 860 861
2439 1 1304 1305
2440 1 1305 1306
2441 1 1306 1307
2442 1 797 798
2443 1 2161 2162
2444 1 2162 2163
2445 1 2687 2688
2446 1 2688 2689
2447 1 3869 3870
2448 1 4689 4690
2449 1 859 860
2450 1 1307 1308
2451 1 2689 2690
2452 1 2690 2691
2453 1 519 520
2454 1 518 519
2455 1 1320 1321
2456 1 1319 1320
2457 1 1321 1322
2458 1 2691 2692
2459 1 2692 2693
2460 1 4327 4328
2461 1 4326 4327
2462 1 517 518
2463 1 2694 2695
2464 1 2693 2694
2465 1 1766 1767
2466 1 565 566
2467 1 2696 2697
2468 1 2695 2696
2469 1 4053 4054
2470 1 4051 4052
2471 1 4052 4053
2472 1 1765 1766
2473 1 1764 1765
2474 1 1763 1764
2475 1 564 565
2476 1 2698 2699
2477 1 2697 2698
2478 1 438 439
2479 1 437 438
2480 1 436 437
2481 1 2699 2700
2482 1 3036 3037
2483 1 3037 3038
2484 1 452 453
2485 1 451 452
2486 1 453 454
2487 1 3153 3154
2488 1 3154 3155
2489 1 454 455
2490 1 4544 4545
2491 1 4543 4544
2492 1 1390 1391
2493 1 1391 1392
2494 1 836 837
2495 1 1567 1568
2496 1 1568 1569
2497 1 3172 3173
2498 1 3171 3172
2499 1 4547 4548
2500 1 4546 4547
2501 1 4545 4546
2502 1 4348 4349
2503 1 4349 4350
2504 1 1392 1393
2505 1 1393 1394
2506 1 835 836
2507 1 834 835
2508 1 4548 4549
2509 1 4549 4550
2510 1 1578 1579
2511 1 1579 1580
2512 1 4874 4875
2513 1 4873 4874
2514 1 1686 1687
2515 1 1687 1688
2516 1 1685 1686
2517 1 1434 1435
2518 1 1435 1436
2519 1 1436 1437
2520 1 1689 1690
2521 1 1688 1689
2522 1 3715 3716
2523 1 3716 3717
2524 1 3717 3718
2525 1 3718 3719
2526 1 3720 3721
2527 1 3719 3720
2528 1 3722 3723
2529 1 3721 3722
2530 1 3724 3725
2531 1 3723 3724
2532 1 1416 1417
2533 1 1417 1418
2534 1 1418 1419
2535 1 2895 2896
2536 1 2894 2895
2537 1 2893 2894
2538 1 4553 4554
2539 1 4552 4553
2540 1 4551 4552
2541 1 3698 3699
2542 1 3697 3698
2543 1 4369 4370
2544 1 4370 4371
2545 1 1140 1141
2546 1 1141 1142
2547 1 1142 1143
2548 1 4111 4112
2549 1 4110 4111
2550 1 116 117
2551 1 82 83
2552 1 83 84
2553 1 84 85
2554 1 115 116
2555 1 363 364
2556 1 362 363
2557 1 361 362
2558 1 339 340
2559 1 338 339
2560 1 337 338
2561 1 1170 1171
2562 1 1172 1173
2563 1 1171 1172
2564 1 4085 4086
2565 1 4084 4085
2566 1 4124 4125
2567 1 4125 4126
2568 1 301 302
2569 1 4083 4084
2570 1 89 90
2571 1 303 304
2572 1 302 303
2573 1 3833 3834
2574 1 3834 3835
2575 1 3849 3850
2576 1 90 91
2577 1 91 92
2578 1 92 93
2579 1 2667 2668
2580 1 2668 2669
2581 1 2669 2670
2582 1 3835 3836
2583 1 3846 3847
2584 1 3847 3848
2585 1 3848 3849
2586 1 101 102
2587 1 413 414
2588 1 412 413
2589 1 4728 4729
2590 1 4727 4728
2591 1 4729 4730
2592 1 3859 3860
2593 1 3860 3861
2594 1 411 412
2595 1 2137 2138
2596 1 2136 2137
2597 1 3861 3862
2598 1 3862 3863
2599 1 391 392
2600 1 392 393
2601 1 390 391
2602 1 389 390
2603 1 388 389
2604 1 2701 2702
2605 1 399 400
2606 1 398 399
2607 1 397 398
2608 1 396 397
2609 1 395 396
2610 1 393 394
2611 1 394 395
2612 1 3866 3867
2613 1 4201 4202
2614 1 4202 4203
2615 1 2163 2164
2616 1 3868 3869
2617 1 3867 3868
2618 1 4688 4689
2619 1 4687 4688
2620 1 4652 4653
2621 1 858 859
2622 1 857 858
2623 1 1308 1309
2624 1 1309 1310
2625 1 1310 1311
2626 1 2165 2166
2627 1 2164 2165
2628 1 4651 4652
2629 1 856 857
2630 1 855 856
2631 1 1311 1312
2632 1 1312 1313
2633 1 1313 1314
2634 1 1314 1315
2635 1 1316 1317
2636 1 1315 1316
2637 1 1318 1319
2638 1 1317 1318
2639 1 516 517
2640 1 515 516
2641 1 854 855
2642 1 853 854
2643 1 4325 4326
2644 1 4324 4325
2645 1 1770 1771
2646 1 1769 1770
2647 1 1768 1769
2648 1 1767 1768
2649 1 852 853
2650 1 851 852
2651 1 562 563
2652 1 467 468
2653 1 468 469
2654 1 433 434
2655 1 434 435
2656 1 435 436
2657 1 563 564
2658 1 466 467
2659 1 465 466
2660 1 2210 2211
2661 1 2209 2210
2662 1 3038 3039
2663 1 1701 1702
2664 1 1702 1703
2665 1 464 465
2666 1 463 464
2667 1 1748 1749
2668 1 1749 1750
2669 1 2208 2209
2670 1 841 842
2671 1 3155 3156
2672 1 3156 3157
2673 1 3157 3158
2674 1 3039 3040
2675 1 462 463
2676 1 461 462
2677 1 460 461
2678 1 459 460
2679 1 458 459
2680 1 457 458
2681 1 456 457
2682 1 455 456
2683 1 1747 1748
2684 1 1746 1747
2685 1 2207 2208
2686 1 2206 2207
2687 1 839 840
2688 1 840 841
2689 1 838 839
2690 1 1744 1745
2691 1 1745 1746
2692 1 2205 2206
2693 1 837 838
2694 1 1566 1567
2695 1 1565 1566
2696 1 3168 3169
2697 1 3169 3170
2698 1 3170 3171
2699 1 1743 1744
2700 1 1742 1743
2701 1 1394 1395
2702 1 1682 1683
2703 1 1681 1682
2704 1 1741 1742
2705 1 1740 1741
2706 1 1395 1396
2707 1 1581 1582
2708 1 1580 1581
2709 1 1684 1685
2710 1 1683 1684
2711 1 4872 4873
2712 1 4871 4872
2713 1 1437 1438
2714 1 4556 4557
2715 1 4555 4556
2716 1 1413 1414
2717 1 1414 1415
2718 1 1415 1416
2719 1 1148 1149
2720 1 1438 1439
2721 1 1439 1440
2722 1 1440 1441
2723 1 3699 3700
2724 1 4366 4367
2725 1 1147 1148
2726 1 1146 1147
2727 1 1145 1146
2728 1 1144 1145
2729 1 2891 2892
2730 1 2892 2893
2731 1 4554 4555
2732 1 4367 4368
2733 1 4368 4369
2734 1 1143 1144
2735 1 4109 4110
2736 1 4108 4109
2737 1 80 81
2738 1 1159 1160
2739 1 1160 1161
2740 1 1161 1162
2741 1 1162 1163
2742 1 81 82
2743 1 114 115
2744 1 113 114
2745 1 112 113
2746 1 364 365
2747 1 365 366
2748 1 341 342
2749 1 340 341
2750 1 342 343
2751 1 1163 1164
2752 1 1164 1165
2753 1 1165 1166
2754 1 1166 1167
2755 1 1167 1168
2756 1 1168 1169
2757 1 1169 1170
2758 1 4086 4087
2759 1 4087 4088
2760 1 4126 4127
2761 1 4127 4128
2762 1 93 94
2763 1 105 106
2764 1 104 105
2765 1 4737 4738
2766 1 4736 4737
2767 1 4738 4739
2768 1 2666 2667
2769 1 2665 2666
2770 1 3836 3837
2771 1 3838 3839
2772 1 3839 3840
2773 1 3840 3841
2774 1 3841 3842
2775 1 3845 3846
2776 1 94 95
2777 1 95 96
2778 1 96 97
2779 1 103 104
2780 1 102 103
2781 1 4734 4735
2782 1 4733 4734
2783 1 4735 4736
2784 1 3837 3838
2785 1 3842 3843
2786 1 3843 3844
2787 1 3844 3845
2788 1 414 415
2789 1 4731 4732
2790 1 4730 4731
2791 1 4732 4733
2792 1 415 416
2793 1 416 417
2794 1 2134 2135
2795 1 2135 2136
2796 1 387 388
2797 1 386 387
2798 1 385 386
2799 1 384 385
2800 1 2183 2184
2801 1 2184 2185
2802 1 3863 3864
2803 1 3864 3865
2804 1 2182 2183
2805 1 2181 2182
2806 1 2702 2703
2807 1 2703 2704
2808 1 3066 3067
2809 1 3865 3866
2810 1 4203 4204
2811 1 4204 4205
2812 1 3065 3066
2813 1 426 427
2814 1 4686 4687
2815 1 4685 4686
2816 1 4653 4654
2817 1 4654 4655
2818 1 3064 3065
2819 1 3063 3064
2820 1 427 428
2821 1 428 429
2822 1 2166 2167
2823 1 2167 2168
2824 1 2168 2169
2825 1 3062 3063
2826 1 3061 3062
2827 1 472 473
2828 1 429 430
2829 1 430 431
2830 1 3060 3061
2831 1 3059 3060
2832 1 4323 4324
2833 1 4322 4323
2834 1 470 471
2835 1 471 472
2836 1 469 470
2837 1 432 433
2838 1 431 432
2839 1 514 515
2840 1 513 514
2841 1 512 513
2842 1 1771 1772
2843 1 849 850
2844 1 848 849
2845 1 561 562
2846 1 3057 3058
2847 1 1772 1773
2848 1 1773 1774
2849 1 1774 1775
2850 1 2213 2214
2851 1 2212 2213
2852 1 847 848
2853 1 846 847
2854 1 560 561
2855 1 1776 1777
2856 1 1775 1776
2857 1 2211 2212
2858 1 844 845
2859 1 845 846
2860 1 1777 1778
2861 1 843 844
2862 1 842 843
2863 1 3158 3159
2864 1 3159 3160
2865 1 3160 3161
2866 1 3040 3041
2867 1 3041 3042
2868 1 1703 1704
2869 1 1704 1705
2870 1 1778 1779
2871 1 1779 1780
2872 1 1608 1609
2873 1 3161 3162
2874 1 3162 3163
2875 1 3163 3164
2876 1 3164 3165
2877 1 3165 3166
2878 1 1705 1706
2879 1 1706 1707
2880 1 1707 1708
2881 1 2203 2204
2882 1 2204 2205
2883 1 1609 1610
2884 1 1610 1611
2885 1 1611 1612
2886 1 1612 1613
2887 1 1564 1565
2888 1 1563 1564
2889 1 3166 3167
2890 1 3167 3168
2891 1 1708 1709
2892 1 1709 1710
2893 1 1679 1680
2894 1 2202 2203
2895 1 2201 2202
2896 1 1613 1614
2897 1 1680 1681
2898 1 1396 1397
2899 1 1397 1398
2900 1 1398 1399
2901 1 1583 1584
2902 1 1584 1585
2903 1 1582 1583
2904 1 4359 4360
2905 1 1737 1738
2906 1 1739 1740
2907 1 1738 1739
2908 1 4870 4871
2909 1 4869 4870
2910 1 1451 1452
2911 1 1452 1453
2912 1 1453 1454
2913 1 1454 1455
2914 1 3148 3149
2915 1 3149 3150
2916 1 4558 4559
2917 1 4360 4361
2918 1 4361 4362
2919 1 1736 1737
2920 1 1735 1736
2921 1 1455 1456
2922 1 1456 1457
2923 1 1457 1458
2924 1 1458 1459
2925 1 4557 4558
2926 1 4363 4364
2927 1 4362 4363
2928 1 1734 1735
2929 1 1149 1150
2930 1 1459 1460
2931 1 4365 4366
2932 1 4364 4365
2933 1 1410 1411
2934 1 1411 1412
2935 1 1412 1413
2936 1 2890 2891
2937 1 1441 1442
2938 1 1442 1443
2939 1 1443 1444
2940 1 1158 1159
2941 1 2889 2890
2942 1 4107 4108
2943 1 79 80
2944 1 78 79
2945 1 4089 4090
2946 1 366 367
2947 1 367 368
2948 1 343 344
2949 1 344 345
2950 1 4088 4089
2951 1 4128 4129
2952 1 4129 4130
2953 1 111 112
2954 1 110 111
2955 1 109 110
2956 1 4742 4743
2957 1 4741 4742
2958 1 108 109
2959 1 107 108
2960 1 106 107
2961 1 4739 4740
2962 1 4740 4741
2963 1 2664 2665
2964 1 2663 2664
2965 1 17 18
2966 1 18 19
2967 1 19 20
2968 1 20 21
2969 1 21 22
2970 1 22 23
2971 1 23 24
2972 1 24 25
2973 1 97 98
2974 1 98 99
2975 1 4199 4200
2976 1 417 418
2977 1 99 100
2978 1 381 382
2979 1 380 381
2980 1 2133 2134
2981 1 2132 2133
2982 1 2247 2248
2983 1 2249 2250
2984 1 2248 2249
2985 1 4196 4197
2986 1 4198 4199
2987 1 4197 4198
2988 1 418 419
2989 1 419 420
2990 1 383 384
2991 1 382 383
2992 1 2187 2188
2993 1 2185 2186
2994 1 2186 2187
2995 1 2246 2247
2996 1 4193 4194
2997 1 4195 4196
2998 1 4194 4195
2999 1 421 422
3000 1 420 421
3001 1 2180 2181
3002 1 2179 2180
3003 1 2704 2705
3004 1 3068 3069
3005 1 4205 4206
3006 1 4206 4207
3007 1 423 424
3008 1 424 425
3009 1 422 423
3010 1 4657 4658
3011 1 4656 4657
3012 1 4655 4656
3013 1 2178 2179
3014 1 2177 2178
3015 1 2705 2706
3016 1 2706 2707
3017 1 3067 3068
3018 1 425 426
3019 1 4684 4685
3020 1 4683 4684
3021 1 2176 2177
3022 1 2175 2176
3023 1 2174 2175
3024 1 474 475
3025 1 475 476
3026 1 2173 2174
3027 1 2171 2172
3028 1 2172 2173
3029 1 2170 2171
3030 1 2169 2170
3031 1 473 474
3032 1 511 512
3033 1 2214 2215
3034 1 2215 2216
3035 1 2216 2217
3036 1 3058 3059
3037 1 4321 4322
3038 1 4320 4321
3039 1 510 511
3040 1 509 510
3041 1 557 558
3042 1 558 559
3043 1 559 560
3044 1 3054 3055
3045 1 3055 3056
3046 1 3056 3057
3047 1 3053 3054
3048 1 1604 1605
3049 1 3042 3043
3050 1 4351 4352
3051 1 1780 1781
3052 1 1605 1606
3053 1 1606 1607
3054 1 1607 1608
3055 1 3043 3044
3056 1 4352 4353
3057 1 4353 4354
3058 1 1781 1782
3059 1 1782 1783
3060 1 1562 1563
3061 1 1561 1562
3062 1 1677 1678
3063 1 1678 1679
3064 1 1676 1677
3065 1 4354 4355
3066 1 4355 4356
3067 1 1783 1784
3068 1 1784 1785
3069 1 1614 1615
3070 1 1615 1616
3071 1 1710 1711
3072 1 1711 1712
3073 1 4356 4357
3074 1 4357 4358
3075 1 1785 1786
3076 1 1786 1787
3077 1 1616 1617
3078 1 1617 1618
3079 1 1587 1588
3080 1 1586 1587
3081 1 1585 1586
3082 1 1712 1713
3083 1 1713 1714
3084 1 4358 4359
3085 1 1399 1400
3086 1 4868 4869
3087 1 4867 4868
3088 1 1618 1619
3089 1 3147 3148
3090 1 3146 3147
3091 1 4559 4560
3092 1 4560 4561
3093 1 1714 1715
3094 1 1715 1716
3095 1 1716 1717
3096 1 1733 1734
3097 1 1731 1732
3098 1 1732 1733
3099 1 1460 1461
3100 1 1461 1462
3101 1 1462 1463
3102 1 1408 1409
3103 1 1409 1410
3104 1 1153 1154
3105 1 1154 1155
3106 1 2885 2886
3107 1 2886 2887
3108 1 2887 2888
3109 1 4106 4107
3110 1 1155 1156
3111 1 1156 1157
3112 1 1157 1158
3113 1 2888 2889
3114 1 1444 1445
3115 1 1445 1446
3116 1 1446 1447
3117 1 77 78
3118 1 76 77
3119 1 1799 1800
3120 1 1447 1448
3121 1 1448 1449
3122 1 1449 1450
3123 1 4090 4091
3124 1 4091 4092
3125 1 4130 4131
3126 1 4131 4132
3127 1 2349 2350
3128 1 368 369
3129 1 346 347
3130 1 347 348
3131 1 345 346
3132 1 4744 4745
3133 1 4745 4746
3134 1 2642 2643
3135 1 369 370
3136 1 370 371
3137 1 4743 4744
3138 1 2641 2642
3139 1 2640 2641
3140 1 2639 2640
3141 1 2638 2639
3142 1 2637 2638
3143 1 2662 2663
3144 1 2636 2637
3145 1 2635 2636
3146 1 2634 2635
3147 1 2632 2633
3148 1 2633 2634
3149 1 13 14
3150 1 16 17
3151 1 15 16
3152 1 14 15
3153 1 25 26
3154 1 374 375
3155 1 2661 2662
3156 1 2631 2632
3157 1 26 27
3158 1 27 28
3159 1 375 376
3160 1 376 377
3161 1 377 378
3162 1 379 380
3163 1 378 379
3164 1 2129 2130
3165 1 2130 2131
3166 1 2131 2132
3167 1 4641 4642
3168 1 2190 2191
3169 1 2188 2189
3170 1 2189 2190
3171 1 2242 2243
3172 1 2244 2245
3173 1 2243 2244
3174 1 2245 2246
3175 1 4659 4660
3176 1 4658 4659
3177 1 4660 4661
3178 1 2241 2242
3179 1 3070 3071
3180 1 3069 3070
3181 1 4191 4192
3182 1 4192 4193
3183 1 4190 4191
3184 1 4207 4208
3185 1 4208 4209
3186 1 2707 2708
3187 1 4682 4683
3188 1 4681 4682
3189 1 4780 4781
3190 1 4781 4782
3191 1 4779 4780
3192 1 4778 4779
3193 1 4777 4778
3194 1 4776 4777
3195 1 4775 4776
3196 1 4774 4775
3197 1 4773 4774
3198 1 4772 4773
3199 1 2708 2709
3200 1 476 477
3201 1 477 478
3202 1 4788 4789
3203 1 4786 4787
3204 1 4787 4788
3205 1 4784 4785
3206 1 4785 4786
3207 1 4782 4783
3208 1 4783 4784
3209 1 4792 4793
3210 1 4793 4794
3211 1 4791 4792
3212 1 4790 4791
3213 1 4789 4790
3214 1 2217 2218
3215 1 2218 2219
3216 1 2219 2220
3217 1 4796 4797
3218 1 4794 4795
3219 1 4795 4796
3220 1 4580 4581
3221 1 4579 4580
3222 1 4576 4577
3223 1 4319 4320
3224 1 4317 4318
3225 1 4318 4319
3226 1 508 509
3227 1 507 508
3228 1 4578 4579
3229 1 4577 4578
3230 1 4575 4576
3231 1 4574 4575
3232 1 555 556
3233 1 556 557
3234 1 3052 3053
3235 1 4573 4574
3236 1 4572 4573
3237 1 1601 1602
3238 1 1602 1603
3239 1 1603 1604
3240 1 3051 3052
3241 1 4571 4572
3242 1 4814 4815
3243 1 4813 4814
3244 1 4812 4813
3245 1 3044 3045
3246 1 3045 3046
3247 1 4811 4812
3248 1 4810 4811
3249 1 1560 1561
3250 1 1559 1560
3251 1 3046 3047
3252 1 3047 3048
3253 1 1674 1675
3254 1 1675 1676
3255 1 4809 4810
3256 1 4808 4809
3257 1 4807 4808
3258 1 4806 4807
3259 1 4805 4806
3260 1 4804 4805
3261 1 4803 4804
3262 1 4802 4803
3263 1 4801 4802
3264 1 3048 3049
3265 1 4564 4565
3266 1 4565 4566
3267 1 1787 1788
3268 1 1590 1591
3269 1 1588 1589
3270 1 1589 1590
3271 1 4562 4563
3272 1 4563 4564
3273 1 1801 1802
3274 1 1802 1803
3275 1 1803 1804
3276 1 1788 1789
3277 1 1789 1790
3278 1 4865 4866
3279 1 4866 4867
3280 1 1619 1620
3281 1 1620 1621
3282 1 4561 4562
3283 1 1804 1805
3284 1 1805 1806
3285 1 1790 1791
3286 1 1791 1792
3287 1 1792 1793
3288 1 3145 3146
3289 1 3144 3145
3290 1 1717 1718
3291 1 1793 1794
3292 1 1794 1795
3293 1 1151 1152
3294 1 2882 2883
3295 1 1463 1464
3296 1 1718 1719
3297 1 1719 1720
3298 1 1720 1721
3299 1 1721 1722
3300 1 1722 1723
3301 1 1723 1724
3302 1 1724 1725
3303 1 1725 1726
3304 1 1727 1728
3305 1 1728 1729
3306 1 1730 1731
3307 1 1729 1730
3308 1 1407 1408
3309 1 1406 1407
3310 1 1795 1796
3311 1 1796 1797
3312 1 1152 1153
3313 1 2883 2884
3314 1 2884 2885
3315 1 1464 1465
3316 1 1465 1466
3317 1 1466 1467
3318 1 4103 4104
3319 1 4104 4105
3320 1 4105 4106
3321 1 1726 1727
3322 1 1405 1406
3323 1 1797 1798
3324 1 1798 1799
3325 1 75 76
3326 1 74 75
3327 1 2346 2347
3328 1 2344 2345
3329 1 2345 2346
3330 1 2343 2344
3331 1 4747 4748
3332 1 4094 4095
3333 1 4093 4094
3334 1 4092 4093
3335 1 4134 4135
3336 1 4132 4133
3337 1 4133 4134
3338 1 2348 2349
3339 1 2347 2348
3340 1 348 349
3341 1 349 350
3342 1 4746 4747
3343 1 2646 2647
3344 1 2645 2646
3345 1 2643 2644
3346 1 2644 2645
3347 1 2425 2426
3348 1 2424 2425
3349 1 371 372
3350 1 372 373
3351 1 2351 2352
3352 1 2352 2353
3353 1 2353 2354
3354 1 11 12
3355 1 12 13
3356 1 2426 2427
3357 1 2427 2428
3358 1 28 29
3359 1 29 30
3360 1 30 31
3361 1 31 32
3362 1 373 374
3363 1 2659 2660
3364 1 2660 2661
3365 1 2630 2631
3366 1 2428 2429
3367 1 2429 2430
3368 1 2629 2630
3369 1 2628 2629
3370 1 2627 2628
3371 1 2431 2432
3372 1 2432 2433
3373 1 2430 2431
3374 1 2125 2126
3375 1 2124 2125
3376 1 2127 2128
3377 1 2126 2127
3378 1 2128 2129
3379 1 2626 2627
3380 1 2433 2434
3381 1 2434 2435
3382 1 4643 4644
3383 1 4645 4646
3384 1 4644 4645
3385 1 2435 2436
3386 1 2436 2437
3387 1 4642 4643
3388 1 4661 4662
3389 1 4663 4664
3390 1 4662 4663
3391 1 4640 4641
3392 1 4639 4640
3393 1 2191 2192
3394 1 2193 2194
3395 1 2192 2193
3396 1 4768 4769
3397 1 2239 2240
3398 1 2240 2241
3399 1 3072 3073
3400 1 3071 3072
3401 1 4210 4211
3402 1 4209 4210
3403 1 4638 4639
3404 1 4637 4638
3405 1 4771 4772
3406 1 4770 4771
3407 1 4769 4770
3408 1 2238 2239
3409 1 4187 4188
3410 1 4188 4189
3411 1 4189 4190
3412 1 4679 4680
3413 1 4680 4681
3414 1 2709 2710
3415 1 2710 2711
3416 1 478 479
3417 1 479 480
3418 1 2221 2222
3419 1 2222 2223
3420 1 2223 2224
3421 1 2220 2221
3422 1 4799 4800
3423 1 4797 4798
3424 1 4798 4799
3425 1 1548 1549
3426 1 1549 1550
3427 1 4581 4582
3428 1 4582 4583
3429 1 4316 4317
3430 1 4315 4316
3431 1 4314 4315
3432 1 506 507
3433 1 505 506
3434 1 504 505
3435 1 2099 2100
3436 1 4820 4821
3437 1 4819 4820
3438 1 4849 4850
3439 1 4848 4849
3440 1 4847 4848
3441 1 554 555
3442 1 553 554
3443 1 4818 4819
3444 1 4816 4817
3445 1 4817 4818
3446 1 4815 4816
3447 1 4570 4571
3448 1 1649 1650
3449 1 1648 1649
3450 1 4568 4569
3451 1 4569 4570
3452 1 1878 1879
3453 1 1879 1880
3454 1 1647 1648
3455 1 1646 1647
3456 1 1645 1646
3457 1 1644 1645
3458 1 1558 1559
3459 1 1557 1558
3460 1 4567 4568
3461 1 4566 4567
3462 1 1876 1877
3463 1 1877 1878
3464 1 1673 1674
3465 1 1672 1673
3466 1 1595 1596
3467 1 1596 1597
3468 1 1594 1595
3469 1 1593 1594
3470 1 3049 3050
3471 1 1875 1876
3472 1 1591 1592
3473 1 1592 1593
3474 1 4864 4865
3475 1 4863 4864
3476 1 1622 1623
3477 1 1621 1622
3478 1 1806 1807
3479 1 1807 1808
3480 1 1808 1809
3481 1 1809 1810
3482 1 4861 4862
3483 1 4862 4863
3484 1 3142 3143
3485 1 3141 3142
3486 1 3143 3144
3487 1 2879 2880
3488 1 2880 2881
3489 1 2881 2882
3490 1 4101 4102
3491 1 4102 4103
3492 1 1402 1403
3493 1 1404 1405
3494 1 1403 1404
3495 1 1467 1468
3496 1 1468 1469
3497 1 4137 4138
3498 1 73 74
3499 1 2342 2343
3500 1 2341 2342
3501 1 2340 2341
3502 1 2339 2340
3503 1 2338 2339
3504 1 2337 2338
3505 1 2336 2337
3506 1 2335 2336
3507 1 2334 2335
3508 1 2333 2334
3509 1 4748 4749
3510 1 4749 4750
3511 1 4095 4096
3512 1 4096 4097
3513 1 4135 4136
3514 1 4136 4137
3515 1 72 73
3516 1 71 72
3517 1 2648 2649
3518 1 2647 2648
3519 1 2354 2355
3520 1 2355 2356
3521 1 2422 2423
3522 1 2423 2424
3523 1 2421 2422
3524 1 2420 2421
3525 1 34 35
3526 1 35 36
3527 1 2271 2272
3528 1 10 11
3529 1 9 10
3530 1 8 9
3531 1 32 33
3532 1 33 34
3533 1 2658 2659
3534 1 2657 2658
3535 1 2269 2270
3536 1 2270 2271
3537 1 2027 2028
3538 1 2028 2029
3539 1 2268 2269
3540 1 2267 2268
3541 1 4646 4647
3542 1 4647 4648
3543 1 4648 4649
3544 1 2025 2026
3545 1 2026 2027
3546 1 2121 2122
3547 1 2123 2124
3548 1 2122 2123
3549 1 2266 2267
3550 1 2265 2266
3551 1 2625 2626
3552 1 4664 4665
3553 1 4665 4666
3554 1 4666 4667
3555 1 2024 2025
3556 1 2023 2024
3557 1 2264 2265
3558 1 2263 2264
3559 1 2624 2625
3560 1 2623 2624
3561 1 2437 2438
3562 1 2022 2023
3563 1 4765 4766
3564 1 4764 4765
3565 1 2440 2441
3566 1 2439 2440
3567 1 2438 2439
3568 1 2019 2020
3569 1 2020 2021
3570 1 2018 2019
3571 1 4767 4768
3572 1 4766 4767
3573 1 3074 3075
3574 1 3075 3076
3575 1 3073 3074
3576 1 2441 2442
3577 1 4211 4212
3578 1 4212 4213
3579 1 4636 4637
3580 1 4677 4678
3581 1 2016 2017
3582 1 2017 2018
3583 1 2194 2195
3584 1 2195 2196
3585 1 2196 2197
3586 1 2235 2236
3587 1 2237 2238
3588 1 2236 2237
3589 1 4635 4636
3590 1 4678 4679
3591 1 2015 2016
3592 1 2014 2015
3593 1 2225 2226
3594 1 2226 2227
3595 1 2712 2713
3596 1 2711 2712
3597 1 4186 4187
3598 1 4185 4186
3599 1 4184 4185
3600 1 480 481
3601 1 481 482
3602 1 2224 2225
3603 1 2713 2714
3604 1 482 483
3605 1 484 485
3606 1 483 484
3607 1 1546 1547
3608 1 1547 1548
3609 1 4584 4585
3610 1 4583 4584
3611 1 4313 4314
3612 1 4312 4313
3613 1 2098 2099
3614 1 2097 2098
3615 1 1543 1544
3616 1 1542 1543
3617 1 1545 1546
3618 1 1544 1545
3619 1 4821 4822
3620 1 4822 4823
3621 1 503 504
3622 1 502 503
3623 1 501 502
3624 1 4846 4847
3625 1 4845 4846
3626 1 4844 4845
3627 1 552 553
3628 1 551 552
3629 1 3099 3100
3630 1 3098 3099
3631 1 1881 1882
3632 1 1880 1881
3633 1 499 500
3634 1 1643 1644
3635 1 1642 1643
3636 1 1641 1642
3637 1 1640 1641
3638 1 1556 1557
3639 1 1555 1556
3640 1 1671 1672
3641 1 1670 1671
3642 1 1669 1670
3643 1 1639 1640
3644 1 1599 1600
3645 1 1598 1599
3646 1 1597 1598
3647 1 1874 1875
3648 1 3126 3127
3649 1 3125 3126
3650 1 3124 3125
3651 1 1873 1874
3652 1 1872 1873
3653 1 1871 1872
3654 1 1623 1624
3655 1 1624 1625
3656 1 3127 3128
3657 1 3128 3129
3658 1 1810 1811
3659 1 1811 1812
3660 1 4860 4861
3661 1 3129 3130
3662 1 3130 3131
3663 1 1812 1813
3664 1 4857 4858
3665 1 4858 4859
3666 1 4859 4860
3667 1 2877 2878
3668 1 2876 2877
3669 1 2875 2876
3670 1 2878 2879
3671 1 3131 3132
3672 1 3132 3133
3673 1 3133 3134
3674 1 3138 3139
3675 1 3139 3140
3676 1 3140 3141
3677 1 3134 3135
3678 1 3135 3136
3679 1 3136 3137
3680 1 3137 3138
3681 1 1401 1402
3682 1 1469 1470
3683 1 1470 1471
3684 1 1471 1472
3685 1 4140 4141
3686 1 4138 4139
3687 1 4139 4140
3688 1 69 70
3689 1 68 69
3690 1 67 68
3691 1 2332 2333
3692 1 2331 2332
3693 1 2330 2331
3694 1 2329 2330
3695 1 70 71
3696 1 40 41
3697 1 39 40
3698 1 2649 2650
3699 1 4097 4098
3700 1 4098 4099
3701 1 4099 4100
3702 1 4151 4152
3703 1 2417 2418
3704 1 36 37
3705 1 37 38
3706 1 38 39
3707 1 2356 2357
3708 1 2357 2358
3709 1 2419 2420
3710 1 2418 2419
3711 1 2272 2273
3712 1 2273 2274
3713 1 7 8
3714 1 6 7
3715 1 2029 2030
3716 1 2030 2031
3717 1 2031 2032
3718 1 2032 2033
3719 1 2655 2656
3720 1 2654 2655
3721 1 2656 2657
3722 1 5 6
3723 1 4 5
3724 1 2462 2463
3725 1 2461 2462
3726 1 4649 4650
3727 1 2653 2654
3728 1 2652 2653
3729 1 3 4
3730 1 2460 2461
3731 1 2459 2460
3732 1 2458 2459
3733 1 2120 2121
3734 1 2457 2458
3735 1 4668 4669
3736 1 4667 4668
3737 1 2118 2119
3738 1 2117 2118
3739 1 2119 2120
3740 1 4762 4763
3741 1 4761 4762
3742 1 4763 4764
3743 1 2262 2263
3744 1 2622 2623
3745 1 2621 2622
3746 1 2021 2022
3747 1 2261 2262
3748 1 2260 2261
3749 1 2259 2260
3750 1 4674 4675
3751 1 3077 3078
3752 1 3076 3077
3753 1 2444 2445
3754 1 2442 2443
3755 1 2443 2444
3756 1 4213 4214
3757 1 4214 4215
3758 1 4675 4676
3759 1 4676 4677
3760 1 2234 2235
3761 1 2445 2446
3762 1 4634 4635
3763 1 4633 4634
3764 1 2197 2198
3765 1 2198 2199
3766 1 2199 2200
3767 1 2228 2229
3768 1 2227 2228
3769 1 2229 2230
3770 1 2230 2231
3771 1 2232 2233
3772 1 2231 2232
3773 1 2233 2234
3774 1 2446 2447
3775 1 2447 2448
3776 1 2013 2014
3777 1 2012 2013
3778 1 2011 2012
3779 1 2714 2715
3780 1 2715 2716
3781 1 2716 2717
3782 1 4183 4184
3783 1 4182 4183
3784 1 2010 2011
3785 1 2525 2526
3786 1 485 486
3787 1 486 487
3788 1 487 488
3789 1 2526 2527
3790 1 2527 2528
3791 1 2528 2529
3792 1 4585 4586
3793 1 4586 4587
3794 1 4311 4312
3795 1 4310 4311
3796 1 488 489
3797 1 489 490
3798 1 490 491
3799 1 2096 2097
3800 1 2095 2096
3801 1 494 495
3802 1 1538 1539
3803 1 1539 1540
3804 1 1541 1542
3805 1 1540 1541
3806 1 3095 3096
3807 1 1884 1885
3808 1 4824 4825
3809 1 4823 4824
3810 1 4825 4826
3811 1 495 496
3812 1 497 498
3813 1 496 497
3814 1 4842 4843
3815 1 4841 4842
3816 1 4843 4844
3817 1 3096 3097
3818 1 3097 3098
3819 1 1883 1884
3820 1 1882 1883
3821 1 498 499
3822 1 2749 2750
3823 1 2748 2749
3824 1 2747 2748
3825 1 1553 1554
3826 1 1552 1553
3827 1 1554 1555
3828 1 3118 3119
3829 1 1927 1928
3830 1 1926 1927
3831 1 1668 1669
3832 1 1667 1668
3833 1 1666 1667
3834 1 1665 1666
3835 1 1664 1665
3836 1 1638 1639
3837 1 1637 1638
3838 1 1636 1637
3839 1 1635 1636
3840 1 1634 1635
3841 1 1633 1634
3842 1 2746 2747
3843 1 2745 2746
3844 1 3120 3121
3845 1 3121 3122
3846 1 3119 3120
3847 1 1849 1850
3848 1 1928 1929
3849 1 1929 1930
3850 1 1662 1663
3851 1 1663 1664
3852 1 1661 1662
3853 1 1628 1629
3854 1 1627 1628
3855 1 3122 3123
3856 1 3123 3124
3857 1 1848 1849
3858 1 1847 1848
3859 1 1930 1931
3860 1 1931 1932
3861 1 1932 1933
3862 1 1626 1627
3863 1 1625 1626
3864 1 1870 1871
3865 1 1869 1870
3866 1 1813 1814
3867 1 1814 1815
3868 1 1815 1816
3869 1 4856 4857
3870 1 2872 2873
3871 1 2874 2875
3872 1 2873 2874
3873 1 4853 4854
3874 1 4854 4855
3875 1 4855 4856
3876 1 1473 1474
3877 1 1472 1473
3878 1 4141 4142
3879 1 4142 4143
3880 1 66 67
3881 1 65 66
3882 1 64 65
3883 1 41 42
3884 1 42 43
3885 1 43 44
3886 1 63 64
3887 1 2359 2360
3888 1 2358 2359
3889 1 2328 2329
3890 1 2327 2328
3891 1 2326 2327
3892 1 4153 4154
3893 1 4152 4153
3894 1 2416 2417
3895 1 2415 2416
3896 1 4154 4155
3897 1 4155 4156
3898 1 2466 2467
3899 1 2468 2469
3900 1 2467 2468
3901 1 2469 2470
3902 1 2470 2471
3903 1 2276 2277
3904 1 2275 2276
3905 1 2274 2275
3906 1 2463 2464
3907 1 2464 2465
3908 1 2465 2466
3909 1 2471 2472
3910 1 2472 2473
3911 1 2033 2034
3912 1 2034 2035
3913 1 2035 2036
3914 1 2651 2652
3915 1 2 3
3916 1 1 2
3917 1 2456 2457
3918 1 4669 4670
3919 1 2116 2117
3920 1 2115 2116
3921 1 2114 2115
3922 1 4760 4761
3923 1 4759 4760
3924 1 2454 2455
3925 1 2455 2456
3926 1 4671 4672
3927 1 4672 4673
3928 1 4670 4671
3929 1 2258 2259
3930 1 2618 2619
3931 1 2620 2621
3932 1 2619 2620
3933 1 2452 2453
3934 1 2453 2454
3935 1 4673 4674
3936 1 2257 2258
3937 1 3078 3079
3938 1 4215 4216
3939 1 4216 4217
3940 1 3079 3080
3941 1 3080 3081
3942 1 4632 4633
3943 1 4631 4632
3944 1 2523 2524
3945 1 2522 2523
3946 1 2572 2573
3947 1 2571 2572
3948 1 2449 2450
3949 1 2448 2449
3950 1 4181 4182
3951 1 4180 4181
3952 1 2007 2008
3953 1 2009 2010
3954 1 2008 2009
3955 1 2524 2525
3956 1 2570 2571
3957 1 2569 2570
3958 1 2719 2720
3959 1 2717 2718
3960 1 2718 2719
3961 1 2094 2095
3962 1 2093 2094
3963 1 2568 2569
3964 1 4587 4588
3965 1 491 492
3966 1 2529 2530
3967 1 2530 2531
3968 1 2531 2532
3969 1 3092 3093
3970 1 4588 4589
3971 1 4589 4590
3972 1 4309 4310
3973 1 4308 4309
3974 1 492 493
3975 1 493 494
3976 1 3094 3095
3977 1 3093 3094
3978 1 4590 4591
3979 1 4591 4592
3980 1 4592 4593
3981 1 1887 1888
3982 1 1886 1887
3983 1 1885 1886
3984 1 4307 4308
3985 1 4306 4307
3986 1 4840 4841
3987 1 1535 1536
3988 1 1537 1538
3989 1 1536 1537
3990 1 4594 4595
3991 1 4593 4594
3992 1 4595 4596
3993 1 4826 4827
3994 1 4827 4828
3995 1 4828 4829
3996 1 4829 4830
3997 1 4836 4837
3998 1 4837 4838
3999 1 4838 4839
4000 1 4839 4840
4001 1 1924 1925
4002 1 1923 1924
4003 1 4830 4831
4004 1 4831 4832
4005 1 4834 4835
4006 1 4833 4834
4007 1 4832 4833
4008 1 4835 4836
4009 1 1551 1552
4010 1 3117 3118
4011 1 3116 3117
4012 1 1925 1926
4013 1 2744 2745
4014 1 1632 1633
4015 1 1631 1632
4016 1 1630 1631
4017 1 1629 1630
4018 1 2742 2743
4019 1 2743 2744
4020 1 1660 1661
4021 1 1659 1660
4022 1 1658 1659
4023 1 2820 2821
4024 1 2822 2823
4025 1 2821 2822
4026 1 1846 1847
4027 1 1845 1846
4028 1 1844 1845
4029 1 1868 1869
4030 1 1867 1868
4031 1 1933 1934
4032 1 1934 1935
4033 1 1935 1936
4034 1 2823 2824
4035 1 2871 2872
4036 1 2870 2871
4037 1 2824 2825
4038 1 2825 2826
4039 1 1817 1818
4040 1 1816 1817
4041 1 4851 4852
4042 1 4852 4853
4043 1 2828 2829
4044 1 2826 2827
4045 1 2827 2828
4046 1 1475 1476
4047 1 1474 1475
4048 1 2832 2833
4049 1 2833 2834
4050 1 2831 2832
4051 1 2830 2831
4052 1 2829 2830
4053 1 4143 4144
4054 1 4144 4145
4055 1 4145 4146
4056 1 2361 2362
4057 1 2362 2363
4058 1 62 63
4059 1 61 62
4060 1 60 61
4061 1 2360 2361
4062 1 2325 2326
4063 1 1049 1050
4064 1 1048 1049
4065 1 2414 2415
4066 1 2324 2325
4067 1 2323 2324
4068 1 4156 4157
4069 1 2413 2414
4070 1 2412 2413
4071 1 2322 2323
4072 1 2321 2322
4073 1 2277 2278
4074 1 2278 2279
4075 1 2599 2600
4076 1 4157 4158
4077 1 4158 4159
4078 1 4159 4160
4079 1 2473 2474
4080 1 2036 2037
4081 1 2037 2038
4082 1 2038 2039
4083 1 2319 2320
4084 1 2320 2321
4085 1 2474 2475
4086 1 2475 2476
4087 1 2476 2477
4088 1 2317 2318
4089 1 2318 2319
4090 1 2314 2315
4091 1 2315 2316
4092 1 2316 2317
4093 1 2113 2114
4094 1 2112 2113
4095 1 4758 4759
4096 1 4757 4758
4097 1 2110 2111
4098 1 2111 2112
4099 1 2615 2616
4100 1 2614 2615
4101 1 2617 2618
4102 1 2616 2617
4103 1 2256 2257
4104 1 2255 2256
4105 1 2451 2452
4106 1 4217 4218
4107 1 4218 4219
4108 1 2576 2577
4109 1 3081 3082
4110 1 4630 4631
4111 1 4629 4630
4112 1 2575 2576
4113 1 2574 2575
4114 1 2573 2574
4115 1 3082 3083
4116 1 3083 3084
4117 1 4253 4254
4118 1 4254 4255
4119 1 2520 2521
4120 1 2521 2522
4121 1 3085 3086
4122 1 3084 3085
4123 1 4179 4180
4124 1 4255 4256
4125 1 4256 4257
4126 1 3086 3087
4127 1 3087 3088
4128 1 4178 4179
4129 1 4177 4178
4130 1 4297 4298
4131 1 4299 4300
4132 1 4298 4299
4133 1 4258 4259
4134 1 4257 4258
4135 1 2006 2007
4136 1 2005 2006
4137 1 2092 2093
4138 1 2091 2092
4139 1 2090 2091
4140 1 2567 2568
4141 1 2721 2722
4142 1 2722 2723
4143 1 2720 2721
4144 1 3088 3089
4145 1 3089 3090
4146 1 2532 2533
4147 1 2533 2534
4148 1 2566 2567
4149 1 2565 2566
4150 1 2724 2725
4151 1 2723 2724
4152 1 3090 3091
4153 1 3091 3092
4154 1 1889 1890
4155 1 4601 4602
4156 1 4602 4603
4157 1 1995 1996
4158 1 2534 2535
4159 1 2564 2565
4160 1 2563 2564
4161 1 1888 1889
4162 1 4305 4306
4163 1 1994 1995
4164 1 1532 1533
4165 1 1534 1535
4166 1 1533 1534
4167 1 2562 2563
4168 1 4596 4597
4169 1 4304 4305
4170 1 4303 4304
4171 1 4597 4598
4172 1 4598 4599
4173 1 1922 1923
4174 1 1921 1922
4175 1 4302 4303
4176 1 4301 4302
4177 1 2814 2815
4178 1 2815 2816
4179 1 3115 3116
4180 1 3114 3115
4181 1 4599 4600
4182 1 2849 2850
4183 1 2848 2849
4184 1 2816 2817
4185 1 2817 2818
4186 1 2847 2848
4187 1 2846 2847
4188 1 2741 2742
4189 1 2819 2820
4190 1 2818 2819
4191 1 1657 1658
4192 1 1656 1657
4193 1 2845 2846
4194 1 2740 2741
4195 1 1866 1867
4196 1 1865 1866
4197 1 1936 1937
4198 1 1655 1656
4199 1 1843 1844
4200 1 1842 1843
4201 1 1937 1938
4202 1 2868 2869
4203 1 2869 2870
4204 1 2841 2842
4205 1 2840 2841
4206 1 2839 2840
4207 1 1478 1479
4208 1 1477 1478
4209 1 1818 1819
4210 1 1819 1820
4211 1 46 47
4212 1 2837 2838
4213 1 2838 2839
4214 1 1476 1477
4215 1 1820 1821
4216 1 44 45
4217 1 45 46
4218 1 2834 2835
4219 1 2836 2837
4220 1 2835 2836
4221 1 4146 4147
4222 1 1824 1825
4223 1 1825 1826
4224 1 1823 1824
4225 1 2364 2365
4226 1 2363 2364
4227 1 1831 1832
4228 1 1830 1831
4229 1 1827 1828
4230 1 1828 1829
4231 1 1826 1827
4232 1 59 60
4233 1 58 59
4234 1 57 58
4235 1 1047 1048
4236 1 1046 1047
4237 1 2411 2412
4238 1 2410 2411
4239 1 2409 2410
4240 1 2039 2040
4241 1 2040 2041
4242 1 2279 2280
4243 1 2280 2281
4244 1 2598 2599
4245 1 2597 2598
4246 1 4160 4161
4247 1 4161 4162
4248 1 2596 2597
4249 1 4163 4164
4250 1 4162 4163
4251 1 2477 2478
4252 1 2478 2479
4253 1 2479 2480
4254 1 4166 4167
4255 1 4164 4165
4256 1 4165 4166
4257 1 2311 2312
4258 1 2310 2311
4259 1 2313 2314
4260 1 2312 2313
4261 1 4756 4757
4262 1 4755 4756
4263 1 4168 4169
4264 1 4167 4168
4265 1 2108 2109
4266 1 2109 2110
4267 1 2309 2310
4268 1 2613 2614
4269 1 4169 4170
4270 1 4170 4171
4271 1 4221 4222
4272 1 2105 2106
4273 1 2104 2105
4274 1 2107 2108
4275 1 2106 2107
4276 1 2578 2579
4277 1 2579 2580
4278 1 2253 2254
4279 1 2254 2255
4280 1 2612 2613
4281 1 2611 2612
4282 1 4171 4172
4283 1 4219 4220
4284 1 4220 4221
4285 1 2102 2103
4286 1 2103 2104
4287 1 2577 2578
4288 1 2609 2610
4289 1 2608 2609
4290 1 2610 2611
4291 1 4172 4173
4292 1 4251 4252
4293 1 2101 2102
4294 1 2607 2608
4295 1 4174 4175
4296 1 4173 4174
4297 1 4252 4253
4298 1 4628 4629
4299 1 4627 4628
4300 1 4626 4627
4301 1 2519 2520
4302 1 2518 2519
4303 1 4949 4950
4304 1 4176 4177
4305 1 4175 4176
4306 1 4295 4296
4307 1 4296 4297
4308 1 4294 4295
4309 1 2088 2089
4310 1 2002 2003
4311 1 2001 2002
4312 1 2004 2005
4313 1 2003 2004
4314 1 1999 2000
4315 1 2089 2090
4316 1 4259 4260
4317 1 4260 4261
4318 1 4261 4262
4319 1 1998 1999
4320 1 1997 1998
4321 1 2725 2726
4322 1 1890 1891
4323 1 1891 1892
4324 1 4262 4263
4325 1 4603 4604
4326 1 4604 4605
4327 1 4605 4606
4328 1 1996 1997
4329 1 2535 2536
4330 1 2536 2537
4331 1 2726 2727
4332 1 2727 2728
4333 1 1993 1994
4334 1 1531 1532
4335 1 2561 2562
4336 1 2728 2729
4337 1 2811 2812
4338 1 2810 2811
4339 1 1992 1993
4340 1 1991 1992
4341 1 1990 1991
4342 1 1530 1531
4343 1 2559 2560
4344 1 2558 2559
4345 1 2560 2561
4346 1 2813 2814
4347 1 2812 2813
4348 1 1920 1921
4349 1 1919 1920
4350 1 2556 2557
4351 1 2557 2558
4352 1 3113 3114
4353 1 3112 3113
4354 1 2554 2555
4355 1 2555 2556
4356 1 2552 2553
4357 1 2553 2554
4358 1 2738 2739
4359 1 2739 2740
4360 1 1862 1863
4361 1 2551 2552
4362 1 2844 2845
4363 1 1481 1482
4364 1 1863 1864
4365 1 1864 1865
4366 1 1978 1979
4367 1 1654 1655
4368 1 1653 1654
4369 1 2866 2867
4370 1 2865 2866
4371 1 2842 2843
4372 1 2843 2844
4373 1 1479 1480
4374 1 1480 1481
4375 1 1841 1842
4376 1 1938 1939
4377 1 1939 1940
4378 1 1977 1978
4379 1 1976 1977
4380 1 2867 2868
4381 1 1840 1841
4382 1 1839 1840
4383 1 1940 1941
4384 1 1975 1976
4385 1 49 50
4386 1 47 48
4387 1 48 49
4388 1 1821 1822
4389 1 1822 1823
4390 1 4147 4148
4391 1 1835 1836
4392 1 1834 1835
4393 1 1970 1971
4394 1 1969 1970
4395 1 2365 2366
4396 1 2366 2367
4397 1 1833 1834
4398 1 1832 1833
4399 1 1829 1830
4400 1 56 57
4401 1 55 56
4402 1 1044 1045
4403 1 1045 1046
4404 1 4241 4242
4405 1 4240 4241
4406 1 151 152
4407 1 4239 4240
4408 1 4238 4239
4409 1 4237 4238
4410 1 4236 4237
4411 1 4235 4236
4412 1 4234 4235
4413 1 4233 4234
4414 1 4232 4233
4415 1 2408 2409
4416 1 2407 2408
4417 1 2406 2407
4418 1 2041 2042
4419 1 2042 2043
4420 1 2043 2044
4421 1 2281 2282
4422 1 2282 2283
4423 1 4231 4232
4424 1 4230 4231
4425 1 2405 2406
4426 1 2404 2405
4427 1 2594 2595
4428 1 2595 2596
4429 1 4229 4230
4430 1 4228 4229
4431 1 2592 2593
4432 1 2593 2594
4433 1 4227 4228
4434 1 4226 4227
4435 1 2480 2481
4436 1 2481 2482
4437 1 2482 2483
4438 1 2302 2303
4439 1 2303 2304
4440 1 4501 4502
4441 1 4224 4225
4442 1 4225 4226
4443 1 2484 2485
4444 1 2483 2484
4445 1 2304 2305
4446 1 2305 2306
4447 1 2307 2308
4448 1 2306 2307
4449 1 2308 2309
4450 1 2582 2583
4451 1 4754 4755
4452 1 4753 4754
4453 1 4752 4753
4454 1 4222 4223
4455 1 4223 4224
4456 1 2581 2582
4457 1 2580 2581
4458 1 2252 2253
4459 1 2251 2252
4460 1 2083 2084
4461 1 4292 4293
4462 1 4293 4294
4463 1 4625 4626
4464 1 4624 4625
4465 1 4623 4624
4466 1 4622 4623
4467 1 4621 4622
4468 1 2517 2518
4469 1 2516 2517
4470 1 2515 2516
4471 1 2084 2085
4472 1 2085 2086
4473 1 2086 2087
4474 1 4948 4949
4475 1 4947 4948
4476 1 2606 2607
4477 1 2604 2605
4478 1 2605 2606
4479 1 2791 2792
4480 1 4620 4621
4481 1 2087 2088
4482 1 4946 4947
4483 1 2602 2603
4484 1 2603 2604
4485 1 2792 2793
4486 1 2601 2602
4487 1 2793 2794
4488 1 2794 2795
4489 1 2795 2796
4490 1 2796 2797
4491 1 1893 1894
4492 1 1892 1893
4493 1 4263 4264
4494 1 4606 4607
4495 1 4607 4608
4496 1 4608 4609
4497 1 2537 2538
4498 1 2538 2539
4499 1 2539 2540
4500 1 2809 2810
4501 1 2808 2809
4502 1 2807 2808
4503 1 2798 2799
4504 1 2799 2800
4505 1 2797 2798
4506 1 1894 1895
4507 1 4264 4265
4508 1 4265 4266
4509 1 2729 2730
4510 1 1851 1852
4511 1 1852 1853
4512 1 1529 1530
4513 1 1528 1529
4514 1 2730 2731
4515 1 2731 2732
4516 1 1853 1854
4517 1 1918 1919
4518 1 1917 1918
4519 1 1916 1917
4520 1 1987 1988
4521 1 1989 1990
4522 1 1988 1989
4523 1 2733 2734
4524 1 2732 2733
4525 1 3111 3112
4526 1 3107 3108
4527 1 1985 1986
4528 1 1986 1987
4529 1 1951 1952
4530 1 1952 1953
4531 1 2734 2735
4532 1 2735 2736
4533 1 3110 3111
4534 1 3109 3110
4535 1 3108 3109
4536 1 3106 3107
4537 1 3105 3106
4538 1 1859 1860
4539 1 1984 1985
4540 1 1983 1984
4541 1 2736 2737
4542 1 2737 2738
4543 1 3104 3105
4544 1 3103 3104
4545 1 3102 3103
4546 1 1860 1861
4547 1 1861 1862
4548 1 1982 1983
4549 1 1981 1982
4550 1 1651 1652
4551 1 1484 1485
4552 1 1482 1483
4553 1 1483 1484
4554 1 1980 1981
4555 1 1979 1980
4556 1 1652 1653
4557 1 2864 2865
4558 1 2863 2864
4559 1 2862 2863
4560 1 1942 1943
4561 1 1941 1942
4562 1 1974 1975
4563 1 1838 1839
4564 1 1836 1837
4565 1 1837 1838
4566 1 1943 1944
4567 1 1971 1972
4568 1 1973 1974
4569 1 1972 1973
4570 1 4149 4150
4571 1 4148 4149
4572 1 1946 1947
4573 1 1947 1948
4574 1 2388 2389
4575 1 2387 2388
4576 1 1968 1969
4577 1 1967 1968
4578 1 2367 2368
4579 1 2389 2390
4580 1 2390 2391
4581 1 54 55
4582 1 52 53
4583 1 53 54
4584 1 1503 1504
4585 1 1502 1503
4586 1 2391 2392
4587 1 2392 2393
4588 1 2393 2394
4589 1 1501 1502
4590 1 1042 1043
4591 1 1043 1044
4592 1 2394 2395
4593 1 2395 2396
4594 1 4242 4243
4595 1 4243 4244
4596 1 152 153
4597 1 153 154
4598 1 2396 2397
4599 1 2397 2398
4600 1 2284 2285
4601 1 2283 2284
4602 1 4244 4245
4603 1 4245 4246
4604 1 154 155
4605 1 2399 2400
4606 1 2398 2399
4607 1 2403 2404
4608 1 2402 2403
4609 1 2044 2045
4610 1 2045 2046
4611 1 2401 2402
4612 1 2591 2592
4613 1 2590 2591
4614 1 2301 2302
4615 1 2586 2587
4616 1 2587 2588
4617 1 2585 2586
4618 1 2588 2589
4619 1 2589 2590
4620 1 649 650
4621 1 4503 4504
4622 1 4502 4503
4623 1 2583 2584
4624 1 2584 2585
4625 1 969 970
4626 1 970 971
4627 1 4504 4505
4628 1 2485 2486
4629 1 2486 2487
4630 1 4751 4752
4631 1 971 972
4632 1 972 973
4633 1 2487 2488
4634 1 2488 2489
4635 1 2080 2081
4636 1 2081 2082
4637 1 2786 2787
4638 1 973 974
4639 1 974 975
4640 1 2082 2083
4641 1 2787 2788
4642 1 2788 2789
4643 1 4290 4291
4644 1 4291 4292
4645 1 975 976
4646 1 976 977
4647 1 977 978
4648 1 978 979
4649 1 980 981
4650 1 979 980
4651 1 981 982
4652 1 2789 2790
4653 1 2790 2791
4654 1 4619 4620
4655 1 4617 4618
4656 1 4618 4619
4657 1 2514 2515
4658 1 2513 2514
4659 1 2512 2513
4660 1 2768 2769
4661 1 4945 4946
4662 1 4616 4617
4663 1 4615 4616
4664 1 2511 2512
4665 1 2767 2768
4666 1 4944 4945
4667 1 4943 4944
4668 1 4942 4943
4669 1 2804 2805
4670 1 2803 2804
4671 1 4613 4614
4672 1 4614 4615
4673 1 2806 2807
4674 1 2805 2806
4675 1 4609 4610
4676 1 4610 4611
4677 1 4611 4612
4678 1 4612 4613
4679 1 2540 2541
4680 1 2541 2542
4681 1 1895 1896
4682 1 4267 4268
4683 1 4266 4267
4684 1 2542 2543
4685 1 2759 2760
4686 1 2758 2759
4687 1 2757 2758
4688 1 1896 1897
4689 1 1904 1905
4690 1 1903 1904
4691 1 1901 1902
4692 1 1902 1903
4693 1 1527 1528
4694 1 2756 2757
4695 1 2755 2756
4696 1 2754 2755
4697 1 2753 2754
4698 1 1854 1855
4699 1 1855 1856
4700 1 1915 1916
4701 1 1914 1915
4702 1 1913 1914
4703 1 1526 1527
4704 1 2752 2753
4705 1 2751 2752
4706 1 1856 1857
4707 1 1857 1858
4708 1 1953 1954
4709 1 1858 1859
4710 1 1954 1955
4711 1 1955 1956
4712 1 1956 1957
4713 1 2861 2862
4714 1 2860 2861
4715 1 2859 2860
4716 1 1491 1492
4717 1 1490 1491
4718 1 1489 1490
4719 1 1487 1488
4720 1 1488 1489
4721 1 1485 1486
4722 1 1486 1487
4723 1 3101 3102
4724 1 1495 1496
4725 1 1493 1494
4726 1 1494 1495
4727 1 1492 1493
4728 1 1498 1499
4729 1 1497 1498
4730 1 1496 1497
4731 1 1499 1500
4732 1 1944 1945
4733 1 1945 1946
4734 1 1966 1967
4735 1 1965 1966
4736 1 2368 2369
4737 1 1504 1505
4738 1 1505 1506
4739 1 1948 1949
4740 1 1949 1950
4741 1 51 52
4742 1 1039 1040
4743 1 1041 1042
4744 1 1040 1041
4745 1 185 186
4746 1 183 184
4747 1 184 185
4748 1 1062 1063
4749 1 1063 1064
4750 1 1060 1061
4751 1 1061 1062
4752 1 182 183
4753 1 1065 1066
4754 1 1064 1065
4755 1 2285 2286
4756 1 2286 2287
4757 1 4249 4250
4758 1 4248 4249
4759 1 4247 4248
4760 1 4246 4247
4761 1 156 157
4762 1 155 156
4763 1 1068 1069
4764 1 1066 1067
4765 1 1067 1068
4766 1 2046 2047
4767 1 157 158
4768 1 158 159
4769 1 1069 1070
4770 1 2047 2048
4771 1 2048 2049
4772 1 647 648
4773 1 2065 2066
4774 1 1070 1071
4775 1 648 649
4776 1 966 967
4777 1 967 968
4778 1 2066 2067
4779 1 2067 2068
4780 1 2068 2069
4781 1 2069 2070
4782 1 968 969
4783 1 4506 4507
4784 1 4505 4506
4785 1 2071 2072
4786 1 2070 2071
4787 1 2072 2073
4788 1 2073 2074
4789 1 2074 2075
4790 1 2075 2076
4791 1 2077 2078
4792 1 2076 2077
4793 1 2078 2079
4794 1 4507 4508
4795 1 2079 2080
4796 1 2783 2784
4797 1 2784 2785
4798 1 2785 2786
4799 1 982 983
4800 1 983 984
4801 1 2489 2490
4802 1 2490 2491
4803 1 2772 2773
4804 1 4289 4290
4805 1 4288 4289
4806 1 2492 2493
4807 1 2491 2492
4808 1 701 702
4809 1 2771 2772
4810 1 2770 2771
4811 1 751 752
4812 1 752 753
4813 1 2769 2770
4814 1 2801 2802
4815 1 2510 2511
4816 1 2766 2767
4817 1 2802 2803
4818 1 3590 3591
4819 1 3591 3592
4820 1 3592 3593
4821 1 3593 3594
4822 1 3594 3595
4823 1 3596 3597
4824 1 3595 3596
4825 1 3597 3598
4826 1 3598 3599
4827 1 3599 3600
4828 1 2508 2509
4829 1 2509 2510
4830 1 2765 2766
4831 1 2764 2765
4832 1 4941 4942
4833 1 4940 4941
4834 1 2507 2508
4835 1 2506 2507
4836 1 2763 2764
4837 1 2762 2763
4838 1 2761 2762
4839 1 4939 4940
4840 1 4938 4939
4841 1 4268 4269
4842 1 2505 2506
4843 1 2504 2505
4844 1 2543 2544
4845 1 2544 2545
4846 1 2545 2546
4847 1 2760 2761
4848 1 1897 1898
4849 1 1898 1899
4850 1 4270 4271
4851 1 4269 4270
4852 1 1905 1906
4853 1 2503 2504
4854 1 2502 2503
4855 1 1912 1913
4856 1 1911 1912
4857 1 1910 1911
4858 1 1909 1910
4859 1 1907 1908
4860 1 1908 1909
4861 1 1906 1907
4862 1 1525 1526
4863 1 1524 1525
4864 1 1523 1524
4865 1 2965 2966
4866 1 2966 2967
4867 1 2967 2968
4868 1 2968 2969
4869 1 2969 2970
4870 1 2970 2971
4871 1 1957 1958
4872 1 2858 2859
4873 1 2857 2858
4874 1 2856 2857
4875 1 2971 2972
4876 1 3398 3399
4877 1 3399 3400
4878 1 3396 3397
4879 1 3397 3398
4880 1 1959 1960
4881 1 1958 1959
4882 1 2972 2973
4883 1 1960 1961
4884 1 1961 1962
4885 1 2976 2977
4886 1 2975 2976
4887 1 2974 2975
4888 1 2973 2974
4889 1 1963 1964
4890 1 1962 1963
4891 1 1508 1509
4892 1 3449 3450
4893 1 2384 2385
4894 1 2386 2387
4895 1 2385 2386
4896 1 1964 1965
4897 1 2370 2371
4898 1 2369 2370
4899 1 1507 1508
4900 1 1506 1507
